# vtk DataFile Version 3.0
FEM4C Analysis Results: Mixed T3 and Q4 Elements Test - Square with Triangular Corner
ASCII
DATASET UNSTRUCTURED_GRID

POINTS 6 float
0.000000 0.000000 0.000000
2.000000 0.000000 0.000000
2.000000 2.000000 0.000000
0.000000 2.000000 0.000000
1.000000 0.000000 0.000000
1.000000 1.000000 0.000000

CELLS 3 21

CELL_TYPES 3

POINT_DATA 6
VECTORS Displacement float
0.000000e+00 0.000000e+00 0.000000e+00
2.380112e-02 6.273685e-02 0.000000e+00
-2.523876e-02 8.271765e-02 0.000000e+00
0.000000e+00 0.000000e+00 0.000000e+00
1.734268e-02 4.147986e-02 0.000000e+00
1.523174e-03 4.144869e-02 0.000000e+00

SCALARS Displacement_Magnitude float
LOOKUP_TABLE default
0.000000e+00
6.709997e-02
8.648240e-02
0.000000e+00
4.495940e-02
4.147667e-02

VECTORS Applied_Force float
0.000000e+00 0.000000e+00 0.000000e+00
0.000000e+00 0.000000e+00 0.000000e+00
0.000000e+00 2.000000e+03 0.000000e+00
0.000000e+00 0.000000e+00 0.000000e+00
0.000000e+00 0.000000e+00 0.000000e+00
0.000000e+00 0.000000e+00 0.000000e+00

CELL_DATA 3
SCALARS Von_Mises_Stress float
LOOKUP_TABLE default
0.000000e+00
0.000000e+00
0.000000e+00

SCALARS Material_ID int
LOOKUP_TABLE default
1
1
1
