# vtk DataFile Version 3.0
FEM4C Analysis Results: FEM4C Analysis
ASCII
DATASET UNSTRUCTURED_GRID

POINTS 6 float
0.000000 0.000000 0.000000
1.000000 0.000000 0.000000
2.000000 0.000000 0.000000
0.000000 1.000000 0.000000
1.000000 1.000000 0.000000
2.000000 1.000000 0.000000

CELLS 3 21

CELL_TYPES 3

POINT_DATA 6
VECTORS Displacement float
0.000000e+00 0.000000e+00 0.000000e+00
9.738066e-03 2.031089e-03 0.000000e+00
1.925044e-02 3.428361e-03 0.000000e+00
0.000000e+00 0.000000e+00 0.000000e+00
8.417858e-03 -7.108810e-04 0.000000e+00
1.793024e-02 5.322620e-04 0.000000e+00

SCALARS Displacement_Magnitude float
LOOKUP_TABLE default
0.000000e+00
9.947625e-03
1.955334e-02
0.000000e+00
8.447822e-03
1.793813e-02

VECTORS Applied_Force float
0.000000e+00 0.000000e+00 0.000000e+00
0.000000e+00 0.000000e+00 0.000000e+00
1.000000e+03 0.000000e+00 0.000000e+00
0.000000e+00 0.000000e+00 0.000000e+00
0.000000e+00 0.000000e+00 0.000000e+00
1.000000e+03 0.000000e+00 0.000000e+00

CELL_DATA 3
SCALARS Von_Mises_Stress float
LOOKUP_TABLE default
0.000000e+00
0.000000e+00
0.000000e+00

SCALARS Material_ID int
LOOKUP_TABLE default
1
1
1
