# vtk DataFile Version 3.0
FEM4C Analysis Results: Simple 2D Test - T3 and Q4 only
ASCII
DATASET UNSTRUCTURED_GRID

POINTS 5 float
0.000000 0.000000 0.000000
1.000000 0.000000 0.000000
1.000000 1.000000 0.000000
0.000000 1.000000 0.000000
0.500000 0.500000 0.000000

CELLS 2 14

CELL_TYPES 2

POINT_DATA 5
VECTORS Displacement float
0.000000e+00 0.000000e+00 0.000000e+00
2.096100e-03 8.985675e-03 0.000000e+00
4.215491e-03 1.365684e-02 0.000000e+00
0.000000e+00 0.000000e+00 0.000000e+00
-3.444787e-03 4.178422e-03 0.000000e+00

SCALARS Displacement_Magnitude float
LOOKUP_TABLE default
0.000000e+00
9.226916e-03
1.429264e-02
0.000000e+00
5.415327e-03

VECTORS Applied_Force float
0.000000e+00 0.000000e+00 0.000000e+00
0.000000e+00 0.000000e+00 0.000000e+00
1.000000e+03 1.000000e+03 0.000000e+00
0.000000e+00 0.000000e+00 0.000000e+00
0.000000e+00 0.000000e+00 0.000000e+00

CELL_DATA 2
SCALARS Von_Mises_Stress float
LOOKUP_TABLE default
0.000000e+00
0.000000e+00

SCALARS Material_ID int
LOOKUP_TABLE default
1
1
