# vtk DataFile Version 3.0
FEM4C Analysis Results: Simple T3 Triangle Test - Single Element Under Point Load
ASCII
DATASET UNSTRUCTURED_GRID

POINTS 3 float
0.000000 0.000000 0.000000
1.000000 0.000000 0.000000
0.500000 1.000000 0.000000

CELLS 1 7

CELL_TYPES 1

POINT_DATA 3
VECTORS Displacement float
0.000000e+00 0.000000e+00 0.000000e+00
0.000000e+00 0.000000e+00 0.000000e+00
0.000000e+00 8.666667e-03 0.000000e+00

SCALARS Displacement_Magnitude float
LOOKUP_TABLE default
0.000000e+00
0.000000e+00
8.666667e-03

VECTORS Applied_Force float
0.000000e+00 0.000000e+00 0.000000e+00
0.000000e+00 0.000000e+00 0.000000e+00
0.000000e+00 1.000000e+03 0.000000e+00

CELL_DATA 1
SCALARS Von_Mises_Stress float
LOOKUP_TABLE default
0.000000e+00

SCALARS Material_ID int
LOOKUP_TABLE default
1
