# vtk DataFile Version 3.0
FEM4C Analysis Results: T6 Cantilever Beam Test
ASCII
DATASET UNSTRUCTURED_GRID

POINTS 6 float
0.000000 0.000000 0.000000
4.000000 0.000000 0.000000
4.000000 1.000000 0.000000
2.000000 0.000000 0.000000
4.000000 0.500000 0.000000
2.000000 1.000000 0.000000

CELLS 1 7
6 0 1 2 3 4 5

CELL_TYPES 1
22

POINT_DATA 6
VECTORS Displacement float
0.000000e+00 0.000000e+00 0.000000e+00
-7.854988e-02 -1.485015e-01 0.000000e+00
3.611644e-02 -1.507563e-01 0.000000e+00
-2.971525e-02 -3.617577e-03 0.000000e+00
-1.965783e-02 -1.461273e-01 0.000000e+00
0.000000e+00 0.000000e+00 0.000000e+00

SCALARS Displacement_Magnitude float
LOOKUP_TABLE default
0.000000e+00
1.679964e-01
1.550221e-01
2.993465e-02
1.474436e-01
0.000000e+00

VECTORS Applied_Force float
0.000000e+00 0.000000e+00 0.000000e+00
0.000000e+00 -1.000000e+03 0.000000e+00
0.000000e+00 -1.000000e+03 0.000000e+00
0.000000e+00 0.000000e+00 0.000000e+00
0.000000e+00 0.000000e+00 0.000000e+00
0.000000e+00 0.000000e+00 0.000000e+00

CELL_DATA 1
SCALARS Von_Mises_Stress float
LOOKUP_TABLE default
2.168319e+03

SCALARS Material_ID int
LOOKUP_TABLE default
1
