# vtk DataFile Version 3.0
FEM4C Analysis Results: Simple T6 Element Test
ASCII
DATASET UNSTRUCTURED_GRID

POINTS 6 float
0.000000 0.000000 0.000000
1.000000 0.000000 0.000000
0.000000 1.000000 0.000000
0.500000 0.000000 0.000000
0.500000 0.500000 0.000000
0.000000 0.500000 0.000000

CELLS 1 7
6 0 1 2 3 4 5

CELL_TYPES 1
22

POINT_DATA 6
VECTORS Displacement float
0.000000e+00 0.000000e+00 0.000000e+00
4.871700e-03 2.126490e-04 0.000000e+00
9.926490e-04 4.516998e-04 0.000000e+00
0.000000e+00 0.000000e+00 0.000000e+00
8.867550e-05 -6.913245e-04 0.000000e+00
0.000000e+00 0.000000e+00 0.000000e+00

SCALARS Displacement_Magnitude float
LOOKUP_TABLE default
0.000000e+00
4.876339e-03
1.090589e-03
0.000000e+00
6.969885e-04
0.000000e+00

VECTORS Applied_Force float
0.000000e+00 0.000000e+00 0.000000e+00
1.000000e+03 0.000000e+00 0.000000e+00
0.000000e+00 0.000000e+00 0.000000e+00
0.000000e+00 0.000000e+00 0.000000e+00
0.000000e+00 0.000000e+00 0.000000e+00
0.000000e+00 0.000000e+00 0.000000e+00

CELL_DATA 1
SCALARS Von_Mises_Stress float
LOOKUP_TABLE default
3.663847e+02

SCALARS Material_ID int
LOOKUP_TABLE default
1
