# vtk DataFile Version 3.0
FEM4C Analysis Results: Q4 Cantilever Beam
ASCII
DATASET UNSTRUCTURED_GRID

POINTS 297 float
0.000000 0.000000 0.000000
0.031250 0.000000 0.000000
0.062500 0.000000 0.000000
0.093750 0.000000 0.000000
0.125000 0.000000 0.000000
0.156250 0.000000 0.000000
0.187500 0.000000 0.000000
0.218750 0.000000 0.000000
0.250000 0.000000 0.000000
0.281250 0.000000 0.000000
0.312500 0.000000 0.000000
0.343750 0.000000 0.000000
0.375000 0.000000 0.000000
0.406250 0.000000 0.000000
0.437500 0.000000 0.000000
0.468750 0.000000 0.000000
0.500000 0.000000 0.000000
0.531250 0.000000 0.000000
0.562500 0.000000 0.000000
0.593750 0.000000 0.000000
0.625000 0.000000 0.000000
0.656250 0.000000 0.000000
0.687500 0.000000 0.000000
0.718750 0.000000 0.000000
0.750000 0.000000 0.000000
0.781250 0.000000 0.000000
0.812500 0.000000 0.000000
0.843750 0.000000 0.000000
0.875000 0.000000 0.000000
0.906250 0.000000 0.000000
0.937500 0.000000 0.000000
0.968750 0.000000 0.000000
1.000000 0.000000 0.000000
0.000000 0.012500 0.000000
0.031250 0.012500 0.000000
0.062500 0.012500 0.000000
0.093750 0.012500 0.000000
0.125000 0.012500 0.000000
0.156250 0.012500 0.000000
0.187500 0.012500 0.000000
0.218750 0.012500 0.000000
0.250000 0.012500 0.000000
0.281250 0.012500 0.000000
0.312500 0.012500 0.000000
0.343750 0.012500 0.000000
0.375000 0.012500 0.000000
0.406250 0.012500 0.000000
0.437500 0.012500 0.000000
0.468750 0.012500 0.000000
0.500000 0.012500 0.000000
0.531250 0.012500 0.000000
0.562500 0.012500 0.000000
0.593750 0.012500 0.000000
0.625000 0.012500 0.000000
0.656250 0.012500 0.000000
0.687500 0.012500 0.000000
0.718750 0.012500 0.000000
0.750000 0.012500 0.000000
0.781250 0.012500 0.000000
0.812500 0.012500 0.000000
0.843750 0.012500 0.000000
0.875000 0.012500 0.000000
0.906250 0.012500 0.000000
0.937500 0.012500 0.000000
0.968750 0.012500 0.000000
1.000000 0.012500 0.000000
0.000000 0.025000 0.000000
0.031250 0.025000 0.000000
0.062500 0.025000 0.000000
0.093750 0.025000 0.000000
0.125000 0.025000 0.000000
0.156250 0.025000 0.000000
0.187500 0.025000 0.000000
0.218750 0.025000 0.000000
0.250000 0.025000 0.000000
0.281250 0.025000 0.000000
0.312500 0.025000 0.000000
0.343750 0.025000 0.000000
0.375000 0.025000 0.000000
0.406250 0.025000 0.000000
0.437500 0.025000 0.000000
0.468750 0.025000 0.000000
0.500000 0.025000 0.000000
0.531250 0.025000 0.000000
0.562500 0.025000 0.000000
0.593750 0.025000 0.000000
0.625000 0.025000 0.000000
0.656250 0.025000 0.000000
0.687500 0.025000 0.000000
0.718750 0.025000 0.000000
0.750000 0.025000 0.000000
0.781250 0.025000 0.000000
0.812500 0.025000 0.000000
0.843750 0.025000 0.000000
0.875000 0.025000 0.000000
0.906250 0.025000 0.000000
0.937500 0.025000 0.000000
0.968750 0.025000 0.000000
1.000000 0.025000 0.000000
0.000000 0.037500 0.000000
0.031250 0.037500 0.000000
0.062500 0.037500 0.000000
0.093750 0.037500 0.000000
0.125000 0.037500 0.000000
0.156250 0.037500 0.000000
0.187500 0.037500 0.000000
0.218750 0.037500 0.000000
0.250000 0.037500 0.000000
0.281250 0.037500 0.000000
0.312500 0.037500 0.000000
0.343750 0.037500 0.000000
0.375000 0.037500 0.000000
0.406250 0.037500 0.000000
0.437500 0.037500 0.000000
0.468750 0.037500 0.000000
0.500000 0.037500 0.000000
0.531250 0.037500 0.000000
0.562500 0.037500 0.000000
0.593750 0.037500 0.000000
0.625000 0.037500 0.000000
0.656250 0.037500 0.000000
0.687500 0.037500 0.000000
0.718750 0.037500 0.000000
0.750000 0.037500 0.000000
0.781250 0.037500 0.000000
0.812500 0.037500 0.000000
0.843750 0.037500 0.000000
0.875000 0.037500 0.000000
0.906250 0.037500 0.000000
0.937500 0.037500 0.000000
0.968750 0.037500 0.000000
1.000000 0.037500 0.000000
0.000000 0.050000 0.000000
0.031250 0.050000 0.000000
0.062500 0.050000 0.000000
0.093750 0.050000 0.000000
0.125000 0.050000 0.000000
0.156250 0.050000 0.000000
0.187500 0.050000 0.000000
0.218750 0.050000 0.000000
0.250000 0.050000 0.000000
0.281250 0.050000 0.000000
0.312500 0.050000 0.000000
0.343750 0.050000 0.000000
0.375000 0.050000 0.000000
0.406250 0.050000 0.000000
0.437500 0.050000 0.000000
0.468750 0.050000 0.000000
0.500000 0.050000 0.000000
0.531250 0.050000 0.000000
0.562500 0.050000 0.000000
0.593750 0.050000 0.000000
0.625000 0.050000 0.000000
0.656250 0.050000 0.000000
0.687500 0.050000 0.000000
0.718750 0.050000 0.000000
0.750000 0.050000 0.000000
0.781250 0.050000 0.000000
0.812500 0.050000 0.000000
0.843750 0.050000 0.000000
0.875000 0.050000 0.000000
0.906250 0.050000 0.000000
0.937500 0.050000 0.000000
0.968750 0.050000 0.000000
1.000000 0.050000 0.000000
0.000000 0.062500 0.000000
0.031250 0.062500 0.000000
0.062500 0.062500 0.000000
0.093750 0.062500 0.000000
0.125000 0.062500 0.000000
0.156250 0.062500 0.000000
0.187500 0.062500 0.000000
0.218750 0.062500 0.000000
0.250000 0.062500 0.000000
0.281250 0.062500 0.000000
0.312500 0.062500 0.000000
0.343750 0.062500 0.000000
0.375000 0.062500 0.000000
0.406250 0.062500 0.000000
0.437500 0.062500 0.000000
0.468750 0.062500 0.000000
0.500000 0.062500 0.000000
0.531250 0.062500 0.000000
0.562500 0.062500 0.000000
0.593750 0.062500 0.000000
0.625000 0.062500 0.000000
0.656250 0.062500 0.000000
0.687500 0.062500 0.000000
0.718750 0.062500 0.000000
0.750000 0.062500 0.000000
0.781250 0.062500 0.000000
0.812500 0.062500 0.000000
0.843750 0.062500 0.000000
0.875000 0.062500 0.000000
0.906250 0.062500 0.000000
0.937500 0.062500 0.000000
0.968750 0.062500 0.000000
1.000000 0.062500 0.000000
0.000000 0.075000 0.000000
0.031250 0.075000 0.000000
0.062500 0.075000 0.000000
0.093750 0.075000 0.000000
0.125000 0.075000 0.000000
0.156250 0.075000 0.000000
0.187500 0.075000 0.000000
0.218750 0.075000 0.000000
0.250000 0.075000 0.000000
0.281250 0.075000 0.000000
0.312500 0.075000 0.000000
0.343750 0.075000 0.000000
0.375000 0.075000 0.000000
0.406250 0.075000 0.000000
0.437500 0.075000 0.000000
0.468750 0.075000 0.000000
0.500000 0.075000 0.000000
0.531250 0.075000 0.000000
0.562500 0.075000 0.000000
0.593750 0.075000 0.000000
0.625000 0.075000 0.000000
0.656250 0.075000 0.000000
0.687500 0.075000 0.000000
0.718750 0.075000 0.000000
0.750000 0.075000 0.000000
0.781250 0.075000 0.000000
0.812500 0.075000 0.000000
0.843750 0.075000 0.000000
0.875000 0.075000 0.000000
0.906250 0.075000 0.000000
0.937500 0.075000 0.000000
0.968750 0.075000 0.000000
1.000000 0.075000 0.000000
0.000000 0.087500 0.000000
0.031250 0.087500 0.000000
0.062500 0.087500 0.000000
0.093750 0.087500 0.000000
0.125000 0.087500 0.000000
0.156250 0.087500 0.000000
0.187500 0.087500 0.000000
0.218750 0.087500 0.000000
0.250000 0.087500 0.000000
0.281250 0.087500 0.000000
0.312500 0.087500 0.000000
0.343750 0.087500 0.000000
0.375000 0.087500 0.000000
0.406250 0.087500 0.000000
0.437500 0.087500 0.000000
0.468750 0.087500 0.000000
0.500000 0.087500 0.000000
0.531250 0.087500 0.000000
0.562500 0.087500 0.000000
0.593750 0.087500 0.000000
0.625000 0.087500 0.000000
0.656250 0.087500 0.000000
0.687500 0.087500 0.000000
0.718750 0.087500 0.000000
0.750000 0.087500 0.000000
0.781250 0.087500 0.000000
0.812500 0.087500 0.000000
0.843750 0.087500 0.000000
0.875000 0.087500 0.000000
0.906250 0.087500 0.000000
0.937500 0.087500 0.000000
0.968750 0.087500 0.000000
1.000000 0.087500 0.000000
0.000000 0.100000 0.000000
0.031250 0.100000 0.000000
0.062500 0.100000 0.000000
0.093750 0.100000 0.000000
0.125000 0.100000 0.000000
0.156250 0.100000 0.000000
0.187500 0.100000 0.000000
0.218750 0.100000 0.000000
0.250000 0.100000 0.000000
0.281250 0.100000 0.000000
0.312500 0.100000 0.000000
0.343750 0.100000 0.000000
0.375000 0.100000 0.000000
0.406250 0.100000 0.000000
0.437500 0.100000 0.000000
0.468750 0.100000 0.000000
0.500000 0.100000 0.000000
0.531250 0.100000 0.000000
0.562500 0.100000 0.000000
0.593750 0.100000 0.000000
0.625000 0.100000 0.000000
0.656250 0.100000 0.000000
0.687500 0.100000 0.000000
0.718750 0.100000 0.000000
0.750000 0.100000 0.000000
0.781250 0.100000 0.000000
0.812500 0.100000 0.000000
0.843750 0.100000 0.000000
0.875000 0.100000 0.000000
0.906250 0.100000 0.000000
0.937500 0.100000 0.000000
0.968750 0.100000 0.000000
1.000000 0.100000 0.000000

CELLS 256 1792

CELL_TYPES 256

POINT_DATA 297
VECTORS Displacement float
0.000000e+00 0.000000e+00 0.000000e+00
-8.422156e-08 -4.484427e-08 0.000000e+00
-1.644930e-07 -1.244558e-07 0.000000e+00
-2.437682e-07 -2.555184e-07 0.000000e+00
-3.203228e-07 -4.352103e-07 0.000000e+00
-3.941653e-07 -6.619454e-07 0.000000e+00
-4.653220e-07 -9.339797e-07 0.000000e+00
-5.337937e-07 -1.249650e-06 0.000000e+00
-5.995805e-07 -1.607275e-06 0.000000e+00
-6.626821e-07 -2.005178e-06 0.000000e+00
-7.230985e-07 -2.441681e-06 0.000000e+00
-7.808297e-07 -2.915105e-06 0.000000e+00
-8.358758e-07 -3.423771e-06 0.000000e+00
-8.882367e-07 -3.966003e-06 0.000000e+00
-9.379124e-07 -4.540120e-06 0.000000e+00
-9.849029e-07 -5.144446e-06 0.000000e+00
-1.029208e-06 -5.777302e-06 0.000000e+00
-1.070828e-06 -6.437010e-06 0.000000e+00
-1.109764e-06 -7.121891e-06 0.000000e+00
-1.146013e-06 -7.830267e-06 0.000000e+00
-1.179578e-06 -8.560461e-06 0.000000e+00
-1.210458e-06 -9.310793e-06 0.000000e+00
-1.238652e-06 -1.007959e-05 0.000000e+00
-1.264161e-06 -1.086516e-05 0.000000e+00
-1.286985e-06 -1.166584e-05 0.000000e+00
-1.307124e-06 -1.247995e-05 0.000000e+00
-1.324577e-06 -1.330580e-05 0.000000e+00
-1.339346e-06 -1.414172e-05 0.000000e+00
-1.351428e-06 -1.498603e-05 0.000000e+00
-1.360840e-06 -1.583706e-05 0.000000e+00
-1.367550e-06 -1.669319e-05 0.000000e+00
-1.371238e-06 -1.755251e-05 0.000000e+00
-1.372246e-06 -1.841224e-05 0.000000e+00
0.000000e+00 0.000000e+00 0.000000e+00
-6.022422e-08 -3.451172e-08 0.000000e+00
-1.227743e-07 -1.162976e-07 0.000000e+00
-1.819513e-07 -2.472794e-07 0.000000e+00
-2.393814e-07 -4.273286e-07 0.000000e+00
-2.947583e-07 -6.543303e-07 0.000000e+00
-3.481268e-07 -9.266498e-07 0.000000e+00
-3.994807e-07 -1.242601e-06 0.000000e+00
-4.488208e-07 -1.600509e-06 0.000000e+00
-4.961469e-07 -1.998694e-06 0.000000e+00
-5.414592e-07 -2.435478e-06 0.000000e+00
-5.847577e-07 -2.909184e-06 0.000000e+00
-6.260422e-07 -3.418132e-06 0.000000e+00
-6.653129e-07 -3.960646e-06 0.000000e+00
-7.025697e-07 -4.535045e-06 0.000000e+00
-7.378126e-07 -5.139653e-06 0.000000e+00
-7.710416e-07 -5.772791e-06 0.000000e+00
-8.022567e-07 -6.432781e-06 0.000000e+00
-8.314580e-07 -7.117944e-06 0.000000e+00
-8.586454e-07 -7.826602e-06 0.000000e+00
-8.838189e-07 -8.557077e-06 0.000000e+00
-9.069785e-07 -9.307692e-06 0.000000e+00
-9.281243e-07 -1.007677e-05 0.000000e+00
-9.472561e-07 -1.086262e-05 0.000000e+00
-9.643741e-07 -1.166358e-05 0.000000e+00
-9.794782e-07 -1.247797e-05 0.000000e+00
-9.925684e-07 -1.330411e-05 0.000000e+00
-1.003645e-06 -1.414031e-05 0.000000e+00
-1.012707e-06 -1.498490e-05 0.000000e+00
-1.019753e-06 -1.583621e-05 0.000000e+00
-1.024800e-06 -1.669261e-05 0.000000e+00
-1.027790e-06 -1.755229e-05 0.000000e+00
-1.028670e-06 -1.841227e-05 0.000000e+00
0.000000e+00 0.000000e+00 0.000000e+00
-3.932335e-08 -2.794300e-08 0.000000e+00
-8.116325e-08 -1.100149e-07 0.000000e+00
-1.209627e-07 -2.414900e-07 0.000000e+00
-1.591695e-07 -4.216815e-07 0.000000e+00
-1.960947e-07 -6.488954e-07 0.000000e+00
-2.316724e-07 -9.214131e-07 0.000000e+00
-2.659088e-07 -1.237566e-06 0.000000e+00
-2.988021e-07 -1.595675e-06 0.000000e+00
-3.303529e-07 -1.994062e-06 0.000000e+00
-3.605611e-07 -2.431048e-06 0.000000e+00
-3.894267e-07 -2.904955e-06 0.000000e+00
-4.169498e-07 -3.414105e-06 0.000000e+00
-4.431302e-07 -3.956819e-06 0.000000e+00
-4.679681e-07 -4.531420e-06 0.000000e+00
-4.914633e-07 -5.136230e-06 0.000000e+00
-5.136160e-07 -5.769569e-06 0.000000e+00
-5.344261e-07 -6.429760e-06 0.000000e+00
-5.538936e-07 -7.115124e-06 0.000000e+00
-5.720185e-07 -7.823984e-06 0.000000e+00
-5.888009e-07 -8.554661e-06 0.000000e+00
-6.042406e-07 -9.305476e-06 0.000000e+00
-6.183378e-07 -1.007475e-05 0.000000e+00
-6.310924e-07 -1.086081e-05 0.000000e+00
-6.425043e-07 -1.166197e-05 0.000000e+00
-6.525737e-07 -1.247656e-05 0.000000e+00
-6.613006e-07 -1.330290e-05 0.000000e+00
-6.686848e-07 -1.413930e-05 0.000000e+00
-6.747274e-07 -1.498410e-05 0.000000e+00
-6.794109e-07 -1.583561e-05 0.000000e+00
-6.828073e-07 -1.669216e-05 0.000000e+00
-6.850724e-07 -1.755210e-05 0.000000e+00
-6.856447e-07 -1.841267e-05 0.000000e+00
0.000000e+00 0.000000e+00 0.000000e+00
-1.946804e-08 -2.430596e-08 0.000000e+00
-4.035833e-08 -1.061533e-07 0.000000e+00
-6.036211e-08 -2.379892e-07 0.000000e+00
-7.946847e-08 -4.183075e-07 0.000000e+00
-9.792180e-08 -6.456313e-07 0.000000e+00
-1.157131e-07 -9.182717e-07 0.000000e+00
-1.328308e-07 -1.234546e-06 0.000000e+00
-1.492775e-07 -1.592775e-06 0.000000e+00
-1.650529e-07 -1.991283e-06 0.000000e+00
-1.801570e-07 -2.428389e-06 0.000000e+00
-1.945898e-07 -2.902417e-06 0.000000e+00
-2.083514e-07 -3.411688e-06 0.000000e+00
-2.214416e-07 -3.954524e-06 0.000000e+00
-2.338605e-07 -4.529245e-06 0.000000e+00
-2.456081e-07 -5.134175e-06 0.000000e+00
-2.566845e-07 -5.767636e-06 0.000000e+00
-2.670895e-07 -6.427947e-06 0.000000e+00
-2.768233e-07 -7.113433e-06 0.000000e+00
-2.858857e-07 -7.822413e-06 0.000000e+00
-2.942769e-07 -8.553211e-06 0.000000e+00
-3.019968e-07 -9.304147e-06 0.000000e+00
-3.090454e-07 -1.007354e-05 0.000000e+00
-3.154227e-07 -1.085972e-05 0.000000e+00
-3.211287e-07 -1.166101e-05 0.000000e+00
-3.261634e-07 -1.247572e-05 0.000000e+00
-3.305267e-07 -1.330217e-05 0.000000e+00
-3.342194e-07 -1.413870e-05 0.000000e+00
-3.372375e-07 -1.498362e-05 0.000000e+00
-3.395900e-07 -1.583526e-05 0.000000e+00
-3.412381e-07 -1.669186e-05 0.000000e+00
-3.426964e-07 -1.755182e-05 0.000000e+00
-3.428908e-07 -1.841383e-05 0.000000e+00
0.000000e+00 0.000000e+00 0.000000e+00
-2.592029e-21 -2.314066e-08 0.000000e+00
-5.162734e-21 -1.048576e-07 0.000000e+00
-7.388290e-21 -2.368149e-07 0.000000e+00
-9.285379e-21 -4.171848e-07 0.000000e+00
-1.055083e-20 -6.445434e-07 0.000000e+00
-1.089194e-20 -9.172243e-07 0.000000e+00
-1.112013e-20 -1.233539e-06 0.000000e+00
-1.143858e-20 -1.591809e-06 0.000000e+00
-1.174658e-20 -1.990356e-06 0.000000e+00
-1.246936e-20 -2.427503e-06 0.000000e+00
-1.366255e-20 -2.901571e-06 0.000000e+00
-1.549192e-20 -3.410883e-06 0.000000e+00
-1.594053e-20 -3.953758e-06 0.000000e+00
-1.558990e-20 -4.528520e-06 0.000000e+00
-1.744614e-20 -5.133491e-06 0.000000e+00
-1.994410e-20 -5.766991e-06 0.000000e+00
-1.918572e-20 -6.427343e-06 0.000000e+00
-1.880750e-20 -7.112869e-06 0.000000e+00
-2.054503e-20 -7.821890e-06 0.000000e+00
-2.013469e-20 -8.552727e-06 0.000000e+00
-1.873831e-20 -9.303704e-06 0.000000e+00
-1.872874e-20 -1.007314e-05 0.000000e+00
-1.771254e-20 -1.085936e-05 0.000000e+00
-1.381815e-20 -1.166068e-05 0.000000e+00
-1.346406e-20 -1.247543e-05 0.000000e+00
-1.713207e-20 -1.330193e-05 0.000000e+00
-1.791944e-20 -1.413850e-05 0.000000e+00
-1.530409e-20 -1.498346e-05 0.000000e+00
-1.327450e-20 -1.583512e-05 0.000000e+00
-1.701707e-20 -1.669185e-05 0.000000e+00
-1.917820e-20 -1.755127e-05 0.000000e+00
-1.788255e-20 -1.841610e-05 0.000000e+00
0.000000e+00 0.000000e+00 0.000000e+00
1.946804e-08 -2.430596e-08 0.000000e+00
4.035833e-08 -1.061533e-07 0.000000e+00
6.036211e-08 -2.379892e-07 0.000000e+00
7.946847e-08 -4.183075e-07 0.000000e+00
9.792180e-08 -6.456313e-07 0.000000e+00
1.157131e-07 -9.182717e-07 0.000000e+00
1.328308e-07 -1.234546e-06 0.000000e+00
1.492775e-07 -1.592775e-06 0.000000e+00
1.650529e-07 -1.991283e-06 0.000000e+00
1.801570e-07 -2.428389e-06 0.000000e+00
1.945898e-07 -2.902417e-06 0.000000e+00
2.083514e-07 -3.411688e-06 0.000000e+00
2.214416e-07 -3.954524e-06 0.000000e+00
2.338605e-07 -4.529245e-06 0.000000e+00
2.456081e-07 -5.134175e-06 0.000000e+00
2.566845e-07 -5.767636e-06 0.000000e+00
2.670895e-07 -6.427947e-06 0.000000e+00
2.768233e-07 -7.113433e-06 0.000000e+00
2.858857e-07 -7.822413e-06 0.000000e+00
2.942769e-07 -8.553211e-06 0.000000e+00
3.019968e-07 -9.304147e-06 0.000000e+00
3.090454e-07 -1.007354e-05 0.000000e+00
3.154227e-07 -1.085972e-05 0.000000e+00
3.211287e-07 -1.166101e-05 0.000000e+00
3.261634e-07 -1.247572e-05 0.000000e+00
3.305267e-07 -1.330217e-05 0.000000e+00
3.342194e-07 -1.413870e-05 0.000000e+00
3.372375e-07 -1.498362e-05 0.000000e+00
3.395900e-07 -1.583526e-05 0.000000e+00
3.412381e-07 -1.669186e-05 0.000000e+00
3.426964e-07 -1.755182e-05 0.000000e+00
3.428908e-07 -1.841383e-05 0.000000e+00
0.000000e+00 0.000000e+00 0.000000e+00
3.932335e-08 -2.794300e-08 0.000000e+00
8.116325e-08 -1.100149e-07 0.000000e+00
1.209627e-07 -2.414900e-07 0.000000e+00
1.591695e-07 -4.216815e-07 0.000000e+00
1.960947e-07 -6.488954e-07 0.000000e+00
2.316724e-07 -9.214131e-07 0.000000e+00
2.659088e-07 -1.237566e-06 0.000000e+00
2.988021e-07 -1.595675e-06 0.000000e+00
3.303529e-07 -1.994062e-06 0.000000e+00
3.605611e-07 -2.431048e-06 0.000000e+00
3.894267e-07 -2.904955e-06 0.000000e+00
4.169498e-07 -3.414105e-06 0.000000e+00
4.431302e-07 -3.956819e-06 0.000000e+00
4.679681e-07 -4.531420e-06 0.000000e+00
4.914633e-07 -5.136230e-06 0.000000e+00
5.136160e-07 -5.769569e-06 0.000000e+00
5.344261e-07 -6.429760e-06 0.000000e+00
5.538936e-07 -7.115124e-06 0.000000e+00
5.720185e-07 -7.823984e-06 0.000000e+00
5.888009e-07 -8.554661e-06 0.000000e+00
6.042406e-07 -9.305476e-06 0.000000e+00
6.183378e-07 -1.007475e-05 0.000000e+00
6.310924e-07 -1.086081e-05 0.000000e+00
6.425043e-07 -1.166197e-05 0.000000e+00
6.525737e-07 -1.247656e-05 0.000000e+00
6.613006e-07 -1.330290e-05 0.000000e+00
6.686848e-07 -1.413930e-05 0.000000e+00
6.747274e-07 -1.498410e-05 0.000000e+00
6.794109e-07 -1.583561e-05 0.000000e+00
6.828073e-07 -1.669216e-05 0.000000e+00
6.850724e-07 -1.755210e-05 0.000000e+00
6.856447e-07 -1.841267e-05 0.000000e+00
0.000000e+00 0.000000e+00 0.000000e+00
6.022422e-08 -3.451172e-08 0.000000e+00
1.227743e-07 -1.162976e-07 0.000000e+00
1.819513e-07 -2.472794e-07 0.000000e+00
2.393814e-07 -4.273286e-07 0.000000e+00
2.947583e-07 -6.543303e-07 0.000000e+00
3.481268e-07 -9.266498e-07 0.000000e+00
3.994807e-07 -1.242601e-06 0.000000e+00
4.488208e-07 -1.600509e-06 0.000000e+00
4.961469e-07 -1.998694e-06 0.000000e+00
5.414592e-07 -2.435478e-06 0.000000e+00
5.847577e-07 -2.909184e-06 0.000000e+00
6.260422e-07 -3.418132e-06 0.000000e+00
6.653129e-07 -3.960646e-06 0.000000e+00
7.025697e-07 -4.535045e-06 0.000000e+00
7.378126e-07 -5.139653e-06 0.000000e+00
7.710416e-07 -5.772791e-06 0.000000e+00
8.022567e-07 -6.432781e-06 0.000000e+00
8.314580e-07 -7.117944e-06 0.000000e+00
8.586454e-07 -7.826602e-06 0.000000e+00
8.838189e-07 -8.557077e-06 0.000000e+00
9.069785e-07 -9.307692e-06 0.000000e+00
9.281243e-07 -1.007677e-05 0.000000e+00
9.472561e-07 -1.086262e-05 0.000000e+00
9.643741e-07 -1.166358e-05 0.000000e+00
9.794782e-07 -1.247797e-05 0.000000e+00
9.925684e-07 -1.330411e-05 0.000000e+00
1.003645e-06 -1.414031e-05 0.000000e+00
1.012707e-06 -1.498490e-05 0.000000e+00
1.019753e-06 -1.583621e-05 0.000000e+00
1.024800e-06 -1.669261e-05 0.000000e+00
1.027790e-06 -1.755229e-05 0.000000e+00
1.028670e-06 -1.841227e-05 0.000000e+00
0.000000e+00 0.000000e+00 0.000000e+00
8.422156e-08 -4.484427e-08 0.000000e+00
1.644930e-07 -1.244558e-07 0.000000e+00
2.437682e-07 -2.555184e-07 0.000000e+00
3.203228e-07 -4.352103e-07 0.000000e+00
3.941653e-07 -6.619454e-07 0.000000e+00
4.653220e-07 -9.339797e-07 0.000000e+00
5.337937e-07 -1.249650e-06 0.000000e+00
5.995805e-07 -1.607275e-06 0.000000e+00
6.626821e-07 -2.005178e-06 0.000000e+00
7.230985e-07 -2.441681e-06 0.000000e+00
7.808297e-07 -2.915105e-06 0.000000e+00
8.358758e-07 -3.423771e-06 0.000000e+00
8.882367e-07 -3.966003e-06 0.000000e+00
9.379124e-07 -4.540120e-06 0.000000e+00
9.849029e-07 -5.144446e-06 0.000000e+00
1.029208e-06 -5.777302e-06 0.000000e+00
1.070828e-06 -6.437010e-06 0.000000e+00
1.109764e-06 -7.121891e-06 0.000000e+00
1.146013e-06 -7.830267e-06 0.000000e+00
1.179578e-06 -8.560461e-06 0.000000e+00
1.210458e-06 -9.310793e-06 0.000000e+00
1.238652e-06 -1.007959e-05 0.000000e+00
1.264161e-06 -1.086516e-05 0.000000e+00
1.286985e-06 -1.166584e-05 0.000000e+00
1.307124e-06 -1.247995e-05 0.000000e+00
1.324577e-06 -1.330580e-05 0.000000e+00
1.339346e-06 -1.414172e-05 0.000000e+00
1.351428e-06 -1.498603e-05 0.000000e+00
1.360840e-06 -1.583706e-05 0.000000e+00
1.367550e-06 -1.669319e-05 0.000000e+00
1.371238e-06 -1.755251e-05 0.000000e+00
1.372246e-06 -1.841224e-05 0.000000e+00

SCALARS Displacement_Magnitude float
LOOKUP_TABLE default
0.000000e+00
9.541635e-08
2.062697e-07
3.531467e-07
5.403838e-07
7.704141e-07
1.043476e-06
1.358882e-06
1.715468e-06
2.111845e-06
2.546503e-06
3.017869e-06
3.524330e-06
4.064252e-06
4.635987e-06
5.237878e-06
5.868261e-06
6.525471e-06
7.207836e-06
7.913686e-06
8.641348e-06
9.389147e-06
1.015541e-05
1.093846e-05
1.173662e-05
1.254821e-05
1.337157e-05
1.420500e-05
1.504684e-05
1.589542e-05
1.674911e-05
1.760599e-05
1.846331e-05
0.000000e+00
6.941192e-08
1.691114e-07
3.070072e-07
4.898093e-07
7.176563e-07
9.898849e-07
1.305236e-06
1.662248e-06
2.059354e-06
2.494941e-06
2.967371e-06
3.474990e-06
4.016137e-06
4.589144e-06
5.192341e-06
5.824055e-06
6.482614e-06
7.166341e-06
7.873562e-06
8.602599e-06
9.351777e-06
1.011942e-05
1.090385e-05
1.170339e-05
1.251636e-05
1.334108e-05
1.417588e-05
1.501909e-05
1.586901e-05
1.672404e-05
1.758236e-05
1.844098e-05
0.000000e+00
4.824041e-08
1.367142e-07
2.700914e-07
4.507219e-07
6.778778e-07
9.500916e-07
1.265811e-06
1.623411e-06
2.021241e-06
2.457641e-06
2.930941e-06
3.439471e-06
3.981555e-06
4.555520e-06
5.159689e-06
5.792385e-06
6.451932e-06
7.136651e-06
7.844867e-06
8.574900e-06
9.325074e-06
1.009371e-05
1.087913e-05
1.167966e-05
1.249362e-05
1.331932e-05
1.415511e-05
1.499928e-05
1.585018e-05
1.670612e-05
1.756546e-05
1.842543e-05
0.000000e+00
3.114136e-08
1.135664e-07
2.455248e-07
4.257892e-07
6.530149e-07
9.255335e-07
1.241671e-06
1.599755e-06
1.998111e-06
2.435063e-06
2.908933e-06
3.418044e-06
3.960719e-06
4.535279e-06
5.140047e-06
5.773344e-06
6.433494e-06
7.118817e-06
7.827636e-06
8.558272e-06
9.309047e-06
1.007828e-05
1.086430e-05
1.166543e-05
1.247998e-05
1.330628e-05
1.414265e-05
1.498741e-05
1.583890e-05
1.669534e-05
1.755517e-05
1.841702e-05
0.000000e+00
2.314066e-08
1.048576e-07
2.368149e-07
4.171848e-07
6.445434e-07
9.172243e-07
1.233539e-06
1.591809e-06
1.990356e-06
2.427503e-06
2.901571e-06
3.410883e-06
3.953758e-06
4.528520e-06
5.133491e-06
5.766991e-06
6.427343e-06
7.112869e-06
7.821890e-06
8.552727e-06
9.303704e-06
1.007314e-05
1.085936e-05
1.166068e-05
1.247543e-05
1.330193e-05
1.413850e-05
1.498346e-05
1.583512e-05
1.669185e-05
1.755127e-05
1.841610e-05
0.000000e+00
3.114136e-08
1.135664e-07
2.455248e-07
4.257892e-07
6.530149e-07
9.255335e-07
1.241671e-06
1.599755e-06
1.998111e-06
2.435063e-06
2.908933e-06
3.418044e-06
3.960719e-06
4.535279e-06
5.140047e-06
5.773344e-06
6.433494e-06
7.118817e-06
7.827636e-06
8.558272e-06
9.309047e-06
1.007828e-05
1.086430e-05
1.166543e-05
1.247998e-05
1.330628e-05
1.414265e-05
1.498741e-05
1.583890e-05
1.669534e-05
1.755517e-05
1.841702e-05
0.000000e+00
4.824041e-08
1.367142e-07
2.700914e-07
4.507219e-07
6.778778e-07
9.500916e-07
1.265811e-06
1.623411e-06
2.021241e-06
2.457641e-06
2.930941e-06
3.439471e-06
3.981555e-06
4.555520e-06
5.159689e-06
5.792385e-06
6.451932e-06
7.136651e-06
7.844867e-06
8.574900e-06
9.325074e-06
1.009371e-05
1.087913e-05
1.167966e-05
1.249362e-05
1.331932e-05
1.415511e-05
1.499928e-05
1.585018e-05
1.670612e-05
1.756546e-05
1.842543e-05
0.000000e+00
6.941192e-08
1.691114e-07
3.070072e-07
4.898093e-07
7.176563e-07
9.898849e-07
1.305236e-06
1.662248e-06
2.059354e-06
2.494941e-06
2.967371e-06
3.474990e-06
4.016137e-06
4.589144e-06
5.192341e-06
5.824055e-06
6.482614e-06
7.166341e-06
7.873562e-06
8.602599e-06
9.351777e-06
1.011942e-05
1.090385e-05
1.170339e-05
1.251636e-05
1.334108e-05
1.417588e-05
1.501909e-05
1.586901e-05
1.672404e-05
1.758236e-05
1.844098e-05
0.000000e+00
9.541635e-08
2.062697e-07
3.531467e-07
5.403838e-07
7.704141e-07
1.043476e-06
1.358882e-06
1.715468e-06
2.111845e-06
2.546503e-06
3.017869e-06
3.524330e-06
4.064252e-06
4.635987e-06
5.237878e-06
5.868261e-06
6.525471e-06
7.207836e-06
7.913686e-06
8.641348e-06
9.389147e-06
1.015541e-05
1.093846e-05
1.173662e-05
1.254821e-05
1.337157e-05
1.420500e-05
1.504684e-05
1.589542e-05
1.674911e-05
1.760599e-05
1.846331e-05

VECTORS Applied_Force float
0.000000e+00 0.000000e+00 0.000000e+00
0.000000e+00 0.000000e+00 0.000000e+00
0.000000e+00 0.000000e+00 0.000000e+00
0.000000e+00 0.000000e+00 0.000000e+00
0.000000e+00 0.000000e+00 0.000000e+00
0.000000e+00 0.000000e+00 0.000000e+00
0.000000e+00 0.000000e+00 0.000000e+00
0.000000e+00 0.000000e+00 0.000000e+00
0.000000e+00 0.000000e+00 0.000000e+00
0.000000e+00 0.000000e+00 0.000000e+00
0.000000e+00 0.000000e+00 0.000000e+00
0.000000e+00 0.000000e+00 0.000000e+00
0.000000e+00 0.000000e+00 0.000000e+00
0.000000e+00 0.000000e+00 0.000000e+00
0.000000e+00 0.000000e+00 0.000000e+00
0.000000e+00 0.000000e+00 0.000000e+00
0.000000e+00 0.000000e+00 0.000000e+00
0.000000e+00 0.000000e+00 0.000000e+00
0.000000e+00 0.000000e+00 0.000000e+00
0.000000e+00 0.000000e+00 0.000000e+00
0.000000e+00 0.000000e+00 0.000000e+00
0.000000e+00 0.000000e+00 0.000000e+00
0.000000e+00 0.000000e+00 0.000000e+00
0.000000e+00 0.000000e+00 0.000000e+00
0.000000e+00 0.000000e+00 0.000000e+00
0.000000e+00 0.000000e+00 0.000000e+00
0.000000e+00 0.000000e+00 0.000000e+00
0.000000e+00 0.000000e+00 0.000000e+00
0.000000e+00 0.000000e+00 0.000000e+00
0.000000e+00 0.000000e+00 0.000000e+00
0.000000e+00 0.000000e+00 0.000000e+00
0.000000e+00 0.000000e+00 0.000000e+00
0.000000e+00 0.000000e+00 0.000000e+00
0.000000e+00 0.000000e+00 0.000000e+00
0.000000e+00 0.000000e+00 0.000000e+00
0.000000e+00 0.000000e+00 0.000000e+00
0.000000e+00 0.000000e+00 0.000000e+00
0.000000e+00 0.000000e+00 0.000000e+00
0.000000e+00 0.000000e+00 0.000000e+00
0.000000e+00 0.000000e+00 0.000000e+00
0.000000e+00 0.000000e+00 0.000000e+00
0.000000e+00 0.000000e+00 0.000000e+00
0.000000e+00 0.000000e+00 0.000000e+00
0.000000e+00 0.000000e+00 0.000000e+00
0.000000e+00 0.000000e+00 0.000000e+00
0.000000e+00 0.000000e+00 0.000000e+00
0.000000e+00 0.000000e+00 0.000000e+00
0.000000e+00 0.000000e+00 0.000000e+00
0.000000e+00 0.000000e+00 0.000000e+00
0.000000e+00 0.000000e+00 0.000000e+00
0.000000e+00 0.000000e+00 0.000000e+00
0.000000e+00 0.000000e+00 0.000000e+00
0.000000e+00 0.000000e+00 0.000000e+00
0.000000e+00 0.000000e+00 0.000000e+00
0.000000e+00 0.000000e+00 0.000000e+00
0.000000e+00 0.000000e+00 0.000000e+00
0.000000e+00 0.000000e+00 0.000000e+00
0.000000e+00 0.000000e+00 0.000000e+00
0.000000e+00 0.000000e+00 0.000000e+00
0.000000e+00 0.000000e+00 0.000000e+00
0.000000e+00 0.000000e+00 0.000000e+00
0.000000e+00 0.000000e+00 0.000000e+00
0.000000e+00 0.000000e+00 0.000000e+00
0.000000e+00 0.000000e+00 0.000000e+00
0.000000e+00 0.000000e+00 0.000000e+00
0.000000e+00 0.000000e+00 0.000000e+00
0.000000e+00 0.000000e+00 0.000000e+00
0.000000e+00 0.000000e+00 0.000000e+00
0.000000e+00 0.000000e+00 0.000000e+00
0.000000e+00 0.000000e+00 0.000000e+00
0.000000e+00 0.000000e+00 0.000000e+00
0.000000e+00 0.000000e+00 0.000000e+00
0.000000e+00 0.000000e+00 0.000000e+00
0.000000e+00 0.000000e+00 0.000000e+00
0.000000e+00 0.000000e+00 0.000000e+00
0.000000e+00 0.000000e+00 0.000000e+00
0.000000e+00 0.000000e+00 0.000000e+00
0.000000e+00 0.000000e+00 0.000000e+00
0.000000e+00 0.000000e+00 0.000000e+00
0.000000e+00 0.000000e+00 0.000000e+00
0.000000e+00 0.000000e+00 0.000000e+00
0.000000e+00 0.000000e+00 0.000000e+00
0.000000e+00 0.000000e+00 0.000000e+00
0.000000e+00 0.000000e+00 0.000000e+00
0.000000e+00 0.000000e+00 0.000000e+00
0.000000e+00 0.000000e+00 0.000000e+00
0.000000e+00 0.000000e+00 0.000000e+00
0.000000e+00 0.000000e+00 0.000000e+00
0.000000e+00 0.000000e+00 0.000000e+00
0.000000e+00 0.000000e+00 0.000000e+00
0.000000e+00 0.000000e+00 0.000000e+00
0.000000e+00 0.000000e+00 0.000000e+00
0.000000e+00 0.000000e+00 0.000000e+00
0.000000e+00 0.000000e+00 0.000000e+00
0.000000e+00 0.000000e+00 0.000000e+00
0.000000e+00 0.000000e+00 0.000000e+00
0.000000e+00 0.000000e+00 0.000000e+00
0.000000e+00 0.000000e+00 0.000000e+00
0.000000e+00 0.000000e+00 0.000000e+00
0.000000e+00 0.000000e+00 0.000000e+00
0.000000e+00 0.000000e+00 0.000000e+00
0.000000e+00 0.000000e+00 0.000000e+00
0.000000e+00 0.000000e+00 0.000000e+00
0.000000e+00 0.000000e+00 0.000000e+00
0.000000e+00 0.000000e+00 0.000000e+00
0.000000e+00 0.000000e+00 0.000000e+00
0.000000e+00 0.000000e+00 0.000000e+00
0.000000e+00 0.000000e+00 0.000000e+00
0.000000e+00 0.000000e+00 0.000000e+00
0.000000e+00 0.000000e+00 0.000000e+00
0.000000e+00 0.000000e+00 0.000000e+00
0.000000e+00 0.000000e+00 0.000000e+00
0.000000e+00 0.000000e+00 0.000000e+00
0.000000e+00 0.000000e+00 0.000000e+00
0.000000e+00 0.000000e+00 0.000000e+00
0.000000e+00 0.000000e+00 0.000000e+00
0.000000e+00 0.000000e+00 0.000000e+00
0.000000e+00 0.000000e+00 0.000000e+00
0.000000e+00 0.000000e+00 0.000000e+00
0.000000e+00 0.000000e+00 0.000000e+00
0.000000e+00 0.000000e+00 0.000000e+00
0.000000e+00 0.000000e+00 0.000000e+00
0.000000e+00 0.000000e+00 0.000000e+00
0.000000e+00 0.000000e+00 0.000000e+00
0.000000e+00 0.000000e+00 0.000000e+00
0.000000e+00 0.000000e+00 0.000000e+00
0.000000e+00 0.000000e+00 0.000000e+00
0.000000e+00 0.000000e+00 0.000000e+00
0.000000e+00 0.000000e+00 0.000000e+00
0.000000e+00 0.000000e+00 0.000000e+00
0.000000e+00 0.000000e+00 0.000000e+00
0.000000e+00 0.000000e+00 0.000000e+00
0.000000e+00 0.000000e+00 0.000000e+00
0.000000e+00 0.000000e+00 0.000000e+00
0.000000e+00 0.000000e+00 0.000000e+00
0.000000e+00 0.000000e+00 0.000000e+00
0.000000e+00 0.000000e+00 0.000000e+00
0.000000e+00 0.000000e+00 0.000000e+00
0.000000e+00 0.000000e+00 0.000000e+00
0.000000e+00 0.000000e+00 0.000000e+00
0.000000e+00 0.000000e+00 0.000000e+00
0.000000e+00 0.000000e+00 0.000000e+00
0.000000e+00 0.000000e+00 0.000000e+00
0.000000e+00 0.000000e+00 0.000000e+00
0.000000e+00 0.000000e+00 0.000000e+00
0.000000e+00 0.000000e+00 0.000000e+00
0.000000e+00 0.000000e+00 0.000000e+00
0.000000e+00 0.000000e+00 0.000000e+00
0.000000e+00 0.000000e+00 0.000000e+00
0.000000e+00 0.000000e+00 0.000000e+00
0.000000e+00 0.000000e+00 0.000000e+00
0.000000e+00 0.000000e+00 0.000000e+00
0.000000e+00 0.000000e+00 0.000000e+00
0.000000e+00 0.000000e+00 0.000000e+00
0.000000e+00 0.000000e+00 0.000000e+00
0.000000e+00 0.000000e+00 0.000000e+00
0.000000e+00 0.000000e+00 0.000000e+00
0.000000e+00 0.000000e+00 0.000000e+00
0.000000e+00 0.000000e+00 0.000000e+00
0.000000e+00 0.000000e+00 0.000000e+00
0.000000e+00 0.000000e+00 0.000000e+00
0.000000e+00 0.000000e+00 0.000000e+00
0.000000e+00 0.000000e+00 0.000000e+00
0.000000e+00 0.000000e+00 0.000000e+00
0.000000e+00 -1.000000e+03 0.000000e+00
0.000000e+00 0.000000e+00 0.000000e+00
0.000000e+00 0.000000e+00 0.000000e+00
0.000000e+00 0.000000e+00 0.000000e+00
0.000000e+00 0.000000e+00 0.000000e+00
0.000000e+00 0.000000e+00 0.000000e+00
0.000000e+00 0.000000e+00 0.000000e+00
0.000000e+00 0.000000e+00 0.000000e+00
0.000000e+00 0.000000e+00 0.000000e+00
0.000000e+00 0.000000e+00 0.000000e+00
0.000000e+00 0.000000e+00 0.000000e+00
0.000000e+00 0.000000e+00 0.000000e+00
0.000000e+00 0.000000e+00 0.000000e+00
0.000000e+00 0.000000e+00 0.000000e+00
0.000000e+00 0.000000e+00 0.000000e+00
0.000000e+00 0.000000e+00 0.000000e+00
0.000000e+00 0.000000e+00 0.000000e+00
0.000000e+00 0.000000e+00 0.000000e+00
0.000000e+00 0.000000e+00 0.000000e+00
0.000000e+00 0.000000e+00 0.000000e+00
0.000000e+00 0.000000e+00 0.000000e+00
0.000000e+00 0.000000e+00 0.000000e+00
0.000000e+00 0.000000e+00 0.000000e+00
0.000000e+00 0.000000e+00 0.000000e+00
0.000000e+00 0.000000e+00 0.000000e+00
0.000000e+00 0.000000e+00 0.000000e+00
0.000000e+00 0.000000e+00 0.000000e+00
0.000000e+00 0.000000e+00 0.000000e+00
0.000000e+00 0.000000e+00 0.000000e+00
0.000000e+00 0.000000e+00 0.000000e+00
0.000000e+00 0.000000e+00 0.000000e+00
0.000000e+00 0.000000e+00 0.000000e+00
0.000000e+00 0.000000e+00 0.000000e+00
0.000000e+00 0.000000e+00 0.000000e+00
0.000000e+00 0.000000e+00 0.000000e+00
0.000000e+00 0.000000e+00 0.000000e+00
0.000000e+00 0.000000e+00 0.000000e+00
0.000000e+00 0.000000e+00 0.000000e+00
0.000000e+00 0.000000e+00 0.000000e+00
0.000000e+00 0.000000e+00 0.000000e+00
0.000000e+00 0.000000e+00 0.000000e+00
0.000000e+00 0.000000e+00 0.000000e+00
0.000000e+00 0.000000e+00 0.000000e+00
0.000000e+00 0.000000e+00 0.000000e+00
0.000000e+00 0.000000e+00 0.000000e+00
0.000000e+00 0.000000e+00 0.000000e+00
0.000000e+00 0.000000e+00 0.000000e+00
0.000000e+00 0.000000e+00 0.000000e+00
0.000000e+00 0.000000e+00 0.000000e+00
0.000000e+00 0.000000e+00 0.000000e+00
0.000000e+00 0.000000e+00 0.000000e+00
0.000000e+00 0.000000e+00 0.000000e+00
0.000000e+00 0.000000e+00 0.000000e+00
0.000000e+00 0.000000e+00 0.000000e+00
0.000000e+00 0.000000e+00 0.000000e+00
0.000000e+00 0.000000e+00 0.000000e+00
0.000000e+00 0.000000e+00 0.000000e+00
0.000000e+00 0.000000e+00 0.000000e+00
0.000000e+00 0.000000e+00 0.000000e+00
0.000000e+00 0.000000e+00 0.000000e+00
0.000000e+00 0.000000e+00 0.000000e+00
0.000000e+00 0.000000e+00 0.000000e+00
0.000000e+00 0.000000e+00 0.000000e+00
0.000000e+00 0.000000e+00 0.000000e+00
0.000000e+00 0.000000e+00 0.000000e+00
0.000000e+00 0.000000e+00 0.000000e+00
0.000000e+00 0.000000e+00 0.000000e+00
0.000000e+00 0.000000e+00 0.000000e+00
0.000000e+00 0.000000e+00 0.000000e+00
0.000000e+00 0.000000e+00 0.000000e+00
0.000000e+00 0.000000e+00 0.000000e+00
0.000000e+00 0.000000e+00 0.000000e+00
0.000000e+00 0.000000e+00 0.000000e+00
0.000000e+00 0.000000e+00 0.000000e+00
0.000000e+00 0.000000e+00 0.000000e+00
0.000000e+00 0.000000e+00 0.000000e+00
0.000000e+00 0.000000e+00 0.000000e+00
0.000000e+00 0.000000e+00 0.000000e+00
0.000000e+00 0.000000e+00 0.000000e+00
0.000000e+00 0.000000e+00 0.000000e+00
0.000000e+00 0.000000e+00 0.000000e+00
0.000000e+00 0.000000e+00 0.000000e+00
0.000000e+00 0.000000e+00 0.000000e+00
0.000000e+00 0.000000e+00 0.000000e+00
0.000000e+00 0.000000e+00 0.000000e+00
0.000000e+00 0.000000e+00 0.000000e+00
0.000000e+00 0.000000e+00 0.000000e+00
0.000000e+00 0.000000e+00 0.000000e+00
0.000000e+00 0.000000e+00 0.000000e+00
0.000000e+00 0.000000e+00 0.000000e+00
0.000000e+00 0.000000e+00 0.000000e+00
0.000000e+00 0.000000e+00 0.000000e+00
0.000000e+00 0.000000e+00 0.000000e+00
0.000000e+00 0.000000e+00 0.000000e+00
0.000000e+00 0.000000e+00 0.000000e+00
0.000000e+00 0.000000e+00 0.000000e+00
0.000000e+00 0.000000e+00 0.000000e+00
0.000000e+00 0.000000e+00 0.000000e+00
0.000000e+00 0.000000e+00 0.000000e+00
0.000000e+00 0.000000e+00 0.000000e+00
0.000000e+00 0.000000e+00 0.000000e+00
0.000000e+00 0.000000e+00 0.000000e+00
0.000000e+00 0.000000e+00 0.000000e+00
0.000000e+00 0.000000e+00 0.000000e+00
0.000000e+00 0.000000e+00 0.000000e+00
0.000000e+00 0.000000e+00 0.000000e+00
0.000000e+00 0.000000e+00 0.000000e+00
0.000000e+00 0.000000e+00 0.000000e+00
0.000000e+00 0.000000e+00 0.000000e+00
0.000000e+00 0.000000e+00 0.000000e+00
0.000000e+00 0.000000e+00 0.000000e+00
0.000000e+00 0.000000e+00 0.000000e+00
0.000000e+00 0.000000e+00 0.000000e+00
0.000000e+00 0.000000e+00 0.000000e+00
0.000000e+00 0.000000e+00 0.000000e+00
0.000000e+00 0.000000e+00 0.000000e+00
0.000000e+00 0.000000e+00 0.000000e+00
0.000000e+00 0.000000e+00 0.000000e+00
0.000000e+00 0.000000e+00 0.000000e+00
0.000000e+00 0.000000e+00 0.000000e+00
0.000000e+00 0.000000e+00 0.000000e+00
0.000000e+00 0.000000e+00 0.000000e+00
0.000000e+00 0.000000e+00 0.000000e+00
0.000000e+00 0.000000e+00 0.000000e+00
0.000000e+00 0.000000e+00 0.000000e+00
0.000000e+00 0.000000e+00 0.000000e+00
0.000000e+00 0.000000e+00 0.000000e+00
0.000000e+00 0.000000e+00 0.000000e+00
0.000000e+00 0.000000e+00 0.000000e+00
0.000000e+00 0.000000e+00 0.000000e+00
0.000000e+00 0.000000e+00 0.000000e+00
0.000000e+00 0.000000e+00 0.000000e+00
0.000000e+00 0.000000e+00 0.000000e+00

CELL_DATA 256
SCALARS Von_Mises_Stress float
LOOKUP_TABLE default
0.000000e+00
0.000000e+00
0.000000e+00
0.000000e+00
0.000000e+00
0.000000e+00
0.000000e+00
0.000000e+00
0.000000e+00
0.000000e+00
0.000000e+00
0.000000e+00
0.000000e+00
0.000000e+00
0.000000e+00
0.000000e+00
0.000000e+00
0.000000e+00
0.000000e+00
0.000000e+00
0.000000e+00
0.000000e+00
0.000000e+00
0.000000e+00
0.000000e+00
0.000000e+00
0.000000e+00
0.000000e+00
0.000000e+00
0.000000e+00
0.000000e+00
0.000000e+00
0.000000e+00
0.000000e+00
0.000000e+00
0.000000e+00
0.000000e+00
0.000000e+00
0.000000e+00
0.000000e+00
0.000000e+00
0.000000e+00
0.000000e+00
0.000000e+00
0.000000e+00
0.000000e+00
0.000000e+00
0.000000e+00
0.000000e+00
0.000000e+00
0.000000e+00
0.000000e+00
0.000000e+00
0.000000e+00
0.000000e+00
0.000000e+00
0.000000e+00
0.000000e+00
0.000000e+00
0.000000e+00
0.000000e+00
0.000000e+00
0.000000e+00
0.000000e+00
0.000000e+00
0.000000e+00
0.000000e+00
0.000000e+00
0.000000e+00
0.000000e+00
0.000000e+00
0.000000e+00
0.000000e+00
0.000000e+00
0.000000e+00
0.000000e+00
0.000000e+00
0.000000e+00
0.000000e+00
0.000000e+00
0.000000e+00
0.000000e+00
0.000000e+00
0.000000e+00
0.000000e+00
0.000000e+00
0.000000e+00
0.000000e+00
0.000000e+00
0.000000e+00
0.000000e+00
0.000000e+00
0.000000e+00
0.000000e+00
0.000000e+00
0.000000e+00
0.000000e+00
0.000000e+00
0.000000e+00
0.000000e+00
0.000000e+00
0.000000e+00
0.000000e+00
0.000000e+00
0.000000e+00
0.000000e+00
0.000000e+00
0.000000e+00
0.000000e+00
0.000000e+00
0.000000e+00
0.000000e+00
0.000000e+00
0.000000e+00
0.000000e+00
0.000000e+00
0.000000e+00
0.000000e+00
0.000000e+00
0.000000e+00
0.000000e+00
0.000000e+00
0.000000e+00
0.000000e+00
0.000000e+00
0.000000e+00
0.000000e+00
0.000000e+00
0.000000e+00
0.000000e+00
0.000000e+00
0.000000e+00
0.000000e+00
0.000000e+00
0.000000e+00
0.000000e+00
0.000000e+00
0.000000e+00
0.000000e+00
0.000000e+00
0.000000e+00
0.000000e+00
0.000000e+00
0.000000e+00
0.000000e+00
0.000000e+00
0.000000e+00
0.000000e+00
0.000000e+00
0.000000e+00
0.000000e+00
0.000000e+00
0.000000e+00
0.000000e+00
0.000000e+00
0.000000e+00
0.000000e+00
0.000000e+00
0.000000e+00
0.000000e+00
0.000000e+00
0.000000e+00
0.000000e+00
0.000000e+00
0.000000e+00
0.000000e+00
0.000000e+00
0.000000e+00
0.000000e+00
0.000000e+00
0.000000e+00
0.000000e+00
0.000000e+00
0.000000e+00
0.000000e+00
0.000000e+00
0.000000e+00
0.000000e+00
0.000000e+00
0.000000e+00
0.000000e+00
0.000000e+00
0.000000e+00
0.000000e+00
0.000000e+00
0.000000e+00
0.000000e+00
0.000000e+00
0.000000e+00
0.000000e+00
0.000000e+00
0.000000e+00
0.000000e+00
0.000000e+00
0.000000e+00
0.000000e+00
0.000000e+00
0.000000e+00
0.000000e+00
0.000000e+00
0.000000e+00
0.000000e+00
0.000000e+00
0.000000e+00
0.000000e+00
0.000000e+00
0.000000e+00
0.000000e+00
0.000000e+00
0.000000e+00
0.000000e+00
0.000000e+00
0.000000e+00
0.000000e+00
0.000000e+00
0.000000e+00
0.000000e+00
0.000000e+00
0.000000e+00
0.000000e+00
0.000000e+00
0.000000e+00
0.000000e+00
0.000000e+00
0.000000e+00
0.000000e+00
0.000000e+00
0.000000e+00
0.000000e+00
0.000000e+00
0.000000e+00
0.000000e+00
0.000000e+00
0.000000e+00
0.000000e+00
0.000000e+00
0.000000e+00
0.000000e+00
0.000000e+00
0.000000e+00
0.000000e+00
0.000000e+00
0.000000e+00
0.000000e+00
0.000000e+00
0.000000e+00
0.000000e+00
0.000000e+00
0.000000e+00
0.000000e+00
0.000000e+00
0.000000e+00
0.000000e+00
0.000000e+00
0.000000e+00
0.000000e+00

SCALARS Material_ID int
LOOKUP_TABLE default
1
1
1
1
1
1
1
1
1
1
1
1
1
1
1
1
1
1
1
1
1
1
1
1
1
1
1
1
1
1
1
1
1
1
1
1
1
1
1
1
1
1
1
1
1
1
1
1
1
1
1
1
1
1
1
1
1
1
1
1
1
1
1
1
1
1
1
1
1
1
1
1
1
1
1
1
1
1
1
1
1
1
1
1
1
1
1
1
1
1
1
1
1
1
1
1
1
1
1
1
1
1
1
1
1
1
1
1
1
1
1
1
1
1
1
1
1
1
1
1
1
1
1
1
1
1
1
1
1
1
1
1
1
1
1
1
1
1
1
1
1
1
1
1
1
1
1
1
1
1
1
1
1
1
1
1
1
1
1
1
1
1
1
1
1
1
1
1
1
1
1
1
1
1
1
1
1
1
1
1
1
1
1
1
1
1
1
1
1
1
1
1
1
1
1
1
1
1
1
1
1
1
1
1
1
1
1
1
1
1
1
1
1
1
1
1
1
1
1
1
1
1
1
1
1
1
1
1
1
1
1
1
1
1
1
1
1
1
1
1
1
1
1
1
1
1
1
1
1
1
1
1
1
1
1
1
