# vtk DataFile Version 3.0
FEM4C Analysis Results: T3 Cantilever Beam
ASCII
DATASET UNSTRUCTURED_GRID

POINTS 297 float
0.000000 0.000000 0.000000
0.031250 0.000000 0.000000
0.062500 0.000000 0.000000
0.093750 0.000000 0.000000
0.125000 0.000000 0.000000
0.156250 0.000000 0.000000
0.187500 0.000000 0.000000
0.218750 0.000000 0.000000
0.250000 0.000000 0.000000
0.281250 0.000000 0.000000
0.312500 0.000000 0.000000
0.343750 0.000000 0.000000
0.375000 0.000000 0.000000
0.406250 0.000000 0.000000
0.437500 0.000000 0.000000
0.468750 0.000000 0.000000
0.500000 0.000000 0.000000
0.531250 0.000000 0.000000
0.562500 0.000000 0.000000
0.593750 0.000000 0.000000
0.625000 0.000000 0.000000
0.656250 0.000000 0.000000
0.687500 0.000000 0.000000
0.718750 0.000000 0.000000
0.750000 0.000000 0.000000
0.781250 0.000000 0.000000
0.812500 0.000000 0.000000
0.843750 0.000000 0.000000
0.875000 0.000000 0.000000
0.906250 0.000000 0.000000
0.937500 0.000000 0.000000
0.968750 0.000000 0.000000
1.000000 0.000000 0.000000
0.000000 0.012500 0.000000
0.031250 0.012500 0.000000
0.062500 0.012500 0.000000
0.093750 0.012500 0.000000
0.125000 0.012500 0.000000
0.156250 0.012500 0.000000
0.187500 0.012500 0.000000
0.218750 0.012500 0.000000
0.250000 0.012500 0.000000
0.281250 0.012500 0.000000
0.312500 0.012500 0.000000
0.343750 0.012500 0.000000
0.375000 0.012500 0.000000
0.406250 0.012500 0.000000
0.437500 0.012500 0.000000
0.468750 0.012500 0.000000
0.500000 0.012500 0.000000
0.531250 0.012500 0.000000
0.562500 0.012500 0.000000
0.593750 0.012500 0.000000
0.625000 0.012500 0.000000
0.656250 0.012500 0.000000
0.687500 0.012500 0.000000
0.718750 0.012500 0.000000
0.750000 0.012500 0.000000
0.781250 0.012500 0.000000
0.812500 0.012500 0.000000
0.843750 0.012500 0.000000
0.875000 0.012500 0.000000
0.906250 0.012500 0.000000
0.937500 0.012500 0.000000
0.968750 0.012500 0.000000
1.000000 0.012500 0.000000
0.000000 0.025000 0.000000
0.031250 0.025000 0.000000
0.062500 0.025000 0.000000
0.093750 0.025000 0.000000
0.125000 0.025000 0.000000
0.156250 0.025000 0.000000
0.187500 0.025000 0.000000
0.218750 0.025000 0.000000
0.250000 0.025000 0.000000
0.281250 0.025000 0.000000
0.312500 0.025000 0.000000
0.343750 0.025000 0.000000
0.375000 0.025000 0.000000
0.406250 0.025000 0.000000
0.437500 0.025000 0.000000
0.468750 0.025000 0.000000
0.500000 0.025000 0.000000
0.531250 0.025000 0.000000
0.562500 0.025000 0.000000
0.593750 0.025000 0.000000
0.625000 0.025000 0.000000
0.656250 0.025000 0.000000
0.687500 0.025000 0.000000
0.718750 0.025000 0.000000
0.750000 0.025000 0.000000
0.781250 0.025000 0.000000
0.812500 0.025000 0.000000
0.843750 0.025000 0.000000
0.875000 0.025000 0.000000
0.906250 0.025000 0.000000
0.937500 0.025000 0.000000
0.968750 0.025000 0.000000
1.000000 0.025000 0.000000
0.000000 0.037500 0.000000
0.031250 0.037500 0.000000
0.062500 0.037500 0.000000
0.093750 0.037500 0.000000
0.125000 0.037500 0.000000
0.156250 0.037500 0.000000
0.187500 0.037500 0.000000
0.218750 0.037500 0.000000
0.250000 0.037500 0.000000
0.281250 0.037500 0.000000
0.312500 0.037500 0.000000
0.343750 0.037500 0.000000
0.375000 0.037500 0.000000
0.406250 0.037500 0.000000
0.437500 0.037500 0.000000
0.468750 0.037500 0.000000
0.500000 0.037500 0.000000
0.531250 0.037500 0.000000
0.562500 0.037500 0.000000
0.593750 0.037500 0.000000
0.625000 0.037500 0.000000
0.656250 0.037500 0.000000
0.687500 0.037500 0.000000
0.718750 0.037500 0.000000
0.750000 0.037500 0.000000
0.781250 0.037500 0.000000
0.812500 0.037500 0.000000
0.843750 0.037500 0.000000
0.875000 0.037500 0.000000
0.906250 0.037500 0.000000
0.937500 0.037500 0.000000
0.968750 0.037500 0.000000
1.000000 0.037500 0.000000
0.000000 0.050000 0.000000
0.031250 0.050000 0.000000
0.062500 0.050000 0.000000
0.093750 0.050000 0.000000
0.125000 0.050000 0.000000
0.156250 0.050000 0.000000
0.187500 0.050000 0.000000
0.218750 0.050000 0.000000
0.250000 0.050000 0.000000
0.281250 0.050000 0.000000
0.312500 0.050000 0.000000
0.343750 0.050000 0.000000
0.375000 0.050000 0.000000
0.406250 0.050000 0.000000
0.437500 0.050000 0.000000
0.468750 0.050000 0.000000
0.500000 0.050000 0.000000
0.531250 0.050000 0.000000
0.562500 0.050000 0.000000
0.593750 0.050000 0.000000
0.625000 0.050000 0.000000
0.656250 0.050000 0.000000
0.687500 0.050000 0.000000
0.718750 0.050000 0.000000
0.750000 0.050000 0.000000
0.781250 0.050000 0.000000
0.812500 0.050000 0.000000
0.843750 0.050000 0.000000
0.875000 0.050000 0.000000
0.906250 0.050000 0.000000
0.937500 0.050000 0.000000
0.968750 0.050000 0.000000
1.000000 0.050000 0.000000
0.000000 0.062500 0.000000
0.031250 0.062500 0.000000
0.062500 0.062500 0.000000
0.093750 0.062500 0.000000
0.125000 0.062500 0.000000
0.156250 0.062500 0.000000
0.187500 0.062500 0.000000
0.218750 0.062500 0.000000
0.250000 0.062500 0.000000
0.281250 0.062500 0.000000
0.312500 0.062500 0.000000
0.343750 0.062500 0.000000
0.375000 0.062500 0.000000
0.406250 0.062500 0.000000
0.437500 0.062500 0.000000
0.468750 0.062500 0.000000
0.500000 0.062500 0.000000
0.531250 0.062500 0.000000
0.562500 0.062500 0.000000
0.593750 0.062500 0.000000
0.625000 0.062500 0.000000
0.656250 0.062500 0.000000
0.687500 0.062500 0.000000
0.718750 0.062500 0.000000
0.750000 0.062500 0.000000
0.781250 0.062500 0.000000
0.812500 0.062500 0.000000
0.843750 0.062500 0.000000
0.875000 0.062500 0.000000
0.906250 0.062500 0.000000
0.937500 0.062500 0.000000
0.968750 0.062500 0.000000
1.000000 0.062500 0.000000
0.000000 0.075000 0.000000
0.031250 0.075000 0.000000
0.062500 0.075000 0.000000
0.093750 0.075000 0.000000
0.125000 0.075000 0.000000
0.156250 0.075000 0.000000
0.187500 0.075000 0.000000
0.218750 0.075000 0.000000
0.250000 0.075000 0.000000
0.281250 0.075000 0.000000
0.312500 0.075000 0.000000
0.343750 0.075000 0.000000
0.375000 0.075000 0.000000
0.406250 0.075000 0.000000
0.437500 0.075000 0.000000
0.468750 0.075000 0.000000
0.500000 0.075000 0.000000
0.531250 0.075000 0.000000
0.562500 0.075000 0.000000
0.593750 0.075000 0.000000
0.625000 0.075000 0.000000
0.656250 0.075000 0.000000
0.687500 0.075000 0.000000
0.718750 0.075000 0.000000
0.750000 0.075000 0.000000
0.781250 0.075000 0.000000
0.812500 0.075000 0.000000
0.843750 0.075000 0.000000
0.875000 0.075000 0.000000
0.906250 0.075000 0.000000
0.937500 0.075000 0.000000
0.968750 0.075000 0.000000
1.000000 0.075000 0.000000
0.000000 0.087500 0.000000
0.031250 0.087500 0.000000
0.062500 0.087500 0.000000
0.093750 0.087500 0.000000
0.125000 0.087500 0.000000
0.156250 0.087500 0.000000
0.187500 0.087500 0.000000
0.218750 0.087500 0.000000
0.250000 0.087500 0.000000
0.281250 0.087500 0.000000
0.312500 0.087500 0.000000
0.343750 0.087500 0.000000
0.375000 0.087500 0.000000
0.406250 0.087500 0.000000
0.437500 0.087500 0.000000
0.468750 0.087500 0.000000
0.500000 0.087500 0.000000
0.531250 0.087500 0.000000
0.562500 0.087500 0.000000
0.593750 0.087500 0.000000
0.625000 0.087500 0.000000
0.656250 0.087500 0.000000
0.687500 0.087500 0.000000
0.718750 0.087500 0.000000
0.750000 0.087500 0.000000
0.781250 0.087500 0.000000
0.812500 0.087500 0.000000
0.843750 0.087500 0.000000
0.875000 0.087500 0.000000
0.906250 0.087500 0.000000
0.937500 0.087500 0.000000
0.968750 0.087500 0.000000
1.000000 0.087500 0.000000
0.000000 0.100000 0.000000
0.031250 0.100000 0.000000
0.062500 0.100000 0.000000
0.093750 0.100000 0.000000
0.125000 0.100000 0.000000
0.156250 0.100000 0.000000
0.187500 0.100000 0.000000
0.218750 0.100000 0.000000
0.250000 0.100000 0.000000
0.281250 0.100000 0.000000
0.312500 0.100000 0.000000
0.343750 0.100000 0.000000
0.375000 0.100000 0.000000
0.406250 0.100000 0.000000
0.437500 0.100000 0.000000
0.468750 0.100000 0.000000
0.500000 0.100000 0.000000
0.531250 0.100000 0.000000
0.562500 0.100000 0.000000
0.593750 0.100000 0.000000
0.625000 0.100000 0.000000
0.656250 0.100000 0.000000
0.687500 0.100000 0.000000
0.718750 0.100000 0.000000
0.750000 0.100000 0.000000
0.781250 0.100000 0.000000
0.812500 0.100000 0.000000
0.843750 0.100000 0.000000
0.875000 0.100000 0.000000
0.906250 0.100000 0.000000
0.937500 0.100000 0.000000
0.968750 0.100000 0.000000
1.000000 0.100000 0.000000

CELLS 512 3584

CELL_TYPES 512

POINT_DATA 297
VECTORS Displacement float
0.000000e+00 0.000000e+00 0.000000e+00
-7.627877e-08 -3.838880e-08 0.000000e+00
-1.486820e-07 -1.127383e-07 0.000000e+00
-2.198229e-07 -2.311771e-07 0.000000e+00
-2.889617e-07 -3.934769e-07 0.000000e+00
-3.557822e-07 -5.983032e-07 0.000000e+00
-4.201932e-07 -8.441425e-07 0.000000e+00
-4.821752e-07 -1.129465e-06 0.000000e+00
-5.417262e-07 -1.452748e-06 0.000000e+00
-5.988470e-07 -1.812470e-06 0.000000e+00
-6.535383e-07 -2.207112e-06 0.000000e+00
-7.058001e-07 -2.635157e-06 0.000000e+00
-7.556327e-07 -3.095086e-06 0.000000e+00
-8.030360e-07 -3.585381e-06 0.000000e+00
-8.480100e-07 -4.104524e-06 0.000000e+00
-8.905548e-07 -4.650996e-06 0.000000e+00
-9.306703e-07 -5.223279e-06 0.000000e+00
-9.683566e-07 -5.819854e-06 0.000000e+00
-1.003614e-06 -6.439204e-06 0.000000e+00
-1.036441e-06 -7.079811e-06 0.000000e+00
-1.066840e-06 -7.740155e-06 0.000000e+00
-1.094809e-06 -8.418718e-06 0.000000e+00
-1.120349e-06 -9.113983e-06 0.000000e+00
-1.143459e-06 -9.824430e-06 0.000000e+00
-1.164141e-06 -1.054854e-05 0.000000e+00
-1.182393e-06 -1.128480e-05 0.000000e+00
-1.198215e-06 -1.203169e-05 0.000000e+00
-1.211609e-06 -1.278768e-05 0.000000e+00
-1.222574e-06 -1.355127e-05 0.000000e+00
-1.231110e-06 -1.432094e-05 0.000000e+00
-1.237180e-06 -1.509517e-05 0.000000e+00
-1.240660e-06 -1.587226e-05 0.000000e+00
-1.241647e-06 -1.665026e-05 0.000000e+00
0.000000e+00 0.000000e+00 0.000000e+00
-5.454636e-08 -3.061908e-08 0.000000e+00
-1.103489e-07 -1.051586e-07 0.000000e+00
-1.640480e-07 -2.237698e-07 0.000000e+00
-2.159740e-07 -3.862982e-07 0.000000e+00
-2.661054e-07 -5.913733e-07 0.000000e+00
-3.144212e-07 -8.374668e-07 0.000000e+00
-3.609150e-07 -1.123045e-06 0.000000e+00
-4.055861e-07 -1.446583e-06 0.000000e+00
-4.484347e-07 -1.806560e-06 0.000000e+00
-4.894613e-07 -2.201457e-06 0.000000e+00
-5.286658e-07 -2.629757e-06 0.000000e+00
-5.660484e-07 -3.089942e-06 0.000000e+00
-6.016090e-07 -3.580492e-06 0.000000e+00
-6.353477e-07 -4.099889e-06 0.000000e+00
-6.672644e-07 -4.646616e-06 0.000000e+00
-6.973591e-07 -5.219154e-06 0.000000e+00
-7.256319e-07 -5.815985e-06 0.000000e+00
-7.520828e-07 -6.435590e-06 0.000000e+00
-7.767117e-07 -7.076451e-06 0.000000e+00
-7.995187e-07 -7.737050e-06 0.000000e+00
-8.205037e-07 -8.415869e-06 0.000000e+00
-8.396667e-07 -9.111389e-06 0.000000e+00
-8.570078e-07 -9.822091e-06 0.000000e+00
-8.725269e-07 -1.054646e-05 0.000000e+00
-8.862241e-07 -1.128297e-05 0.000000e+00
-8.980992e-07 -1.203011e-05 0.000000e+00
-9.081523e-07 -1.278637e-05 0.000000e+00
-9.163841e-07 -1.355021e-05 0.000000e+00
-9.227984e-07 -1.432013e-05 0.000000e+00
-9.274006e-07 -1.509461e-05 0.000000e+00
-9.301363e-07 -1.587199e-05 0.000000e+00
-9.308761e-07 -1.665020e-05 0.000000e+00
0.000000e+00 0.000000e+00 0.000000e+00
-3.534252e-08 -2.559781e-08 0.000000e+00
-7.281590e-08 -9.955338e-08 0.000000e+00
-1.089429e-07 -2.184089e-07 0.000000e+00
-1.436515e-07 -3.811436e-07 0.000000e+00
-1.770977e-07 -5.864081e-07 0.000000e+00
-2.093198e-07 -8.326858e-07 0.000000e+00
-2.403255e-07 -1.118447e-06 0.000000e+00
-2.701166e-07 -1.442167e-06 0.000000e+00
-2.986930e-07 -1.802326e-06 0.000000e+00
-3.260548e-07 -2.197406e-06 0.000000e+00
-3.522020e-07 -2.625888e-06 0.000000e+00
-3.771345e-07 -3.086254e-06 0.000000e+00
-4.008525e-07 -3.576987e-06 0.000000e+00
-4.233558e-07 -4.096566e-06 0.000000e+00
-4.446444e-07 -4.643476e-06 0.000000e+00
-4.647184e-07 -5.216196e-06 0.000000e+00
-4.835778e-07 -5.813209e-06 0.000000e+00
-5.012226e-07 -6.432996e-06 0.000000e+00
-5.176527e-07 -7.074039e-06 0.000000e+00
-5.328682e-07 -7.734821e-06 0.000000e+00
-5.468690e-07 -8.413821e-06 0.000000e+00
-5.596552e-07 -9.109523e-06 0.000000e+00
-5.712268e-07 -9.820408e-06 0.000000e+00
-5.815837e-07 -1.054496e-05 0.000000e+00
-5.907260e-07 -1.128165e-05 0.000000e+00
-5.986537e-07 -1.202898e-05 0.000000e+00
-6.053666e-07 -1.278541e-05 0.000000e+00
-6.108660e-07 -1.354944e-05 0.000000e+00
-6.151590e-07 -1.431953e-05 0.000000e+00
-6.182827e-07 -1.509418e-05 0.000000e+00
-6.202665e-07 -1.587182e-05 0.000000e+00
-6.206902e-07 -1.665043e-05 0.000000e+00
0.000000e+00 0.000000e+00 0.000000e+00
-1.725545e-08 -2.279081e-08 0.000000e+00
-3.606878e-08 -9.613836e-08 0.000000e+00
-5.433541e-08 -2.151193e-07 0.000000e+00
-7.178195e-08 -3.780154e-07 0.000000e+00
-8.853695e-08 -5.834076e-07 0.000000e+00
-1.046650e-07 -8.297994e-07 0.000000e+00
-1.201830e-07 -1.115670e-06 0.000000e+00
-1.350940e-07 -1.439500e-06 0.000000e+00
-1.493982e-07 -1.799768e-06 0.000000e+00
-1.630953e-07 -2.194957e-06 0.000000e+00
-1.761852e-07 -2.623549e-06 0.000000e+00
-1.886677e-07 -3.084025e-06 0.000000e+00
-2.005429e-07 -3.574866e-06 0.000000e+00
-2.118109e-07 -4.094555e-06 0.000000e+00
-2.224714e-07 -4.641574e-06 0.000000e+00
-2.325247e-07 -5.214403e-06 0.000000e+00
-2.419707e-07 -5.811525e-06 0.000000e+00
-2.508093e-07 -6.431422e-06 0.000000e+00
-2.590406e-07 -7.072575e-06 0.000000e+00
-2.666647e-07 -7.733465e-06 0.000000e+00
-2.736813e-07 -8.412575e-06 0.000000e+00
-2.800907e-07 -9.108387e-06 0.000000e+00
-2.858928e-07 -9.819381e-06 0.000000e+00
-2.910875e-07 -1.054404e-05 0.000000e+00
-2.956750e-07 -1.128085e-05 0.000000e+00
-2.996551e-07 -1.202828e-05 0.000000e+00
-3.030280e-07 -1.278482e-05 0.000000e+00
-3.057944e-07 -1.354895e-05 0.000000e+00
-3.079591e-07 -1.431915e-05 0.000000e+00
-3.095487e-07 -1.509389e-05 0.000000e+00
-3.107075e-07 -1.587172e-05 0.000000e+00
-3.109211e-07 -1.665116e-05 0.000000e+00
0.000000e+00 0.000000e+00 0.000000e+00
3.754217e-10 -2.192848e-08 0.000000e+00
2.122919e-10 -9.493739e-08 0.000000e+00
-2.573556e-11 -2.139445e-07 0.000000e+00
-1.469697e-10 -3.769229e-07 0.000000e+00
-1.995493e-10 -5.823732e-07 0.000000e+00
-2.327330e-10 -8.288077e-07 0.000000e+00
-2.633869e-10 -1.114716e-06 0.000000e+00
-2.947852e-10 -1.438582e-06 0.000000e+00
-3.268868e-10 -1.798887e-06 0.000000e+00
-3.593033e-10 -2.194112e-06 0.000000e+00
-3.918194e-10 -2.622740e-06 0.000000e+00
-4.243568e-10 -3.083252e-06 0.000000e+00
-4.568952e-10 -3.574130e-06 0.000000e+00
-4.894317e-10 -4.093856e-06 0.000000e+00
-5.219671e-10 -4.640911e-06 0.000000e+00
-5.545021e-10 -5.213777e-06 0.000000e+00
-5.870370e-10 -5.810936e-06 0.000000e+00
-6.195718e-10 -6.430869e-06 0.000000e+00
-6.521066e-10 -7.072058e-06 0.000000e+00
-6.846414e-10 -7.732985e-06 0.000000e+00
-7.171764e-10 -8.412131e-06 0.000000e+00
-7.497129e-10 -9.107979e-06 0.000000e+00
-7.822553e-10 -9.819010e-06 0.000000e+00
-8.148135e-10 -1.054371e-05 0.000000e+00
-8.474030e-10 -1.128055e-05 0.000000e+00
-8.800176e-10 -1.202802e-05 0.000000e+00
-9.125050e-10 -1.278460e-05 0.000000e+00
-9.440929e-10 -1.354876e-05 0.000000e+00
-9.715198e-10 -1.431900e-05 0.000000e+00
-9.819799e-10 -1.509377e-05 0.000000e+00
-9.486355e-10 -1.587160e-05 0.000000e+00
-1.457978e-09 -1.665254e-05 0.000000e+00
0.000000e+00 0.000000e+00 0.000000e+00
1.793572e-08 -2.291778e-08 0.000000e+00
3.638887e-08 -9.593620e-08 0.000000e+00
5.423653e-08 -2.149084e-07 0.000000e+00
7.147986e-08 -3.778767e-07 0.000000e+00
8.813914e-08 -5.833074e-07 0.000000e+00
1.042011e-07 -8.297111e-07 0.000000e+00
1.196569e-07 -1.115584e-06 0.000000e+00
1.345047e-07 -1.439413e-06 0.000000e+00
1.487445e-07 -1.799682e-06 0.000000e+00
1.623767e-07 -2.194871e-06 0.000000e+00
1.754015e-07 -2.623462e-06 0.000000e+00
1.878190e-07 -3.083938e-06 0.000000e+00
1.996291e-07 -3.574779e-06 0.000000e+00
2.108320e-07 -4.094469e-06 0.000000e+00
2.214275e-07 -4.641487e-06 0.000000e+00
2.314157e-07 -5.214317e-06 0.000000e+00
2.407966e-07 -5.811439e-06 0.000000e+00
2.495702e-07 -6.431335e-06 0.000000e+00
2.577364e-07 -7.072488e-06 0.000000e+00
2.652954e-07 -7.733379e-06 0.000000e+00
2.722470e-07 -8.412489e-06 0.000000e+00
2.785913e-07 -9.108300e-06 0.000000e+00
2.843283e-07 -9.819294e-06 0.000000e+00
2.894579e-07 -1.054395e-05 0.000000e+00
2.939802e-07 -1.128076e-05 0.000000e+00
2.978952e-07 -1.202819e-05 0.000000e+00
3.012032e-07 -1.278473e-05 0.000000e+00
3.039059e-07 -1.354887e-05 0.000000e+00
3.060106e-07 -1.431907e-05 0.000000e+00
3.075417e-07 -1.509381e-05 0.000000e+00
3.085432e-07 -1.587155e-05 0.000000e+00
3.086751e-07 -1.665110e-05 0.000000e+00
0.000000e+00 0.000000e+00 0.000000e+00
3.574076e-08 -2.580492e-08 0.000000e+00
7.281426e-08 -9.912977e-08 0.000000e+00
1.087239e-07 -2.180171e-07 0.000000e+00
1.433322e-07 -3.808828e-07 0.000000e+00
1.767042e-07 -5.862118e-07 0.000000e+00
2.088601e-07 -8.325096e-07 0.000000e+00
2.398015e-07 -1.118274e-06 0.000000e+00
2.695279e-07 -1.441994e-06 0.000000e+00
2.980394e-07 -1.802153e-06 0.000000e+00
3.253362e-07 -2.197232e-06 0.000000e+00
3.514183e-07 -2.625714e-06 0.000000e+00
3.762858e-07 -3.086081e-06 0.000000e+00
3.999387e-07 -3.576813e-06 0.000000e+00
4.223769e-07 -4.096393e-06 0.000000e+00
4.436005e-07 -4.643302e-06 0.000000e+00
4.636094e-07 -5.216022e-06 0.000000e+00
4.824037e-07 -5.813035e-06 0.000000e+00
4.999834e-07 -6.432822e-06 0.000000e+00
5.163485e-07 -7.073866e-06 0.000000e+00
5.314989e-07 -7.734647e-06 0.000000e+00
5.454347e-07 -8.413648e-06 0.000000e+00
5.581558e-07 -9.109350e-06 0.000000e+00
5.696623e-07 -9.820235e-06 0.000000e+00
5.799542e-07 -1.054478e-05 0.000000e+00
5.890314e-07 -1.128148e-05 0.000000e+00
5.968940e-07 -1.202880e-05 0.000000e+00
6.035423e-07 -1.278524e-05 0.000000e+00
6.089773e-07 -1.354926e-05 0.000000e+00
6.132039e-07 -1.431936e-05 0.000000e+00
6.162368e-07 -1.509400e-05 0.000000e+00
6.180973e-07 -1.587158e-05 0.000000e+00
6.186610e-07 -1.665032e-05 0.000000e+00
0.000000e+00 0.000000e+00 0.000000e+00
5.417298e-08 -3.076137e-08 0.000000e+00
1.098294e-07 -1.045280e-07 0.000000e+00
1.637042e-07 -2.232642e-07 0.000000e+00
2.156439e-07 -3.859399e-07 0.000000e+00
2.657203e-07 -5.910865e-07 0.000000e+00
3.139676e-07 -8.372032e-07 0.000000e+00
3.603934e-07 -1.122786e-06 0.000000e+00
4.049981e-07 -1.446323e-06 0.000000e+00
4.477813e-07 -1.806300e-06 0.000000e+00
4.887427e-07 -2.201197e-06 0.000000e+00
5.278821e-07 -2.629497e-06 0.000000e+00
5.651996e-07 -3.089681e-06 0.000000e+00
6.006952e-07 -3.580231e-06 0.000000e+00
6.343688e-07 -4.099629e-06 0.000000e+00
6.662204e-07 -4.646356e-06 0.000000e+00
6.962501e-07 -5.218894e-06 0.000000e+00
7.244579e-07 -5.815725e-06 0.000000e+00
7.508437e-07 -6.435330e-06 0.000000e+00
7.754075e-07 -7.076191e-06 0.000000e+00
7.981494e-07 -7.736790e-06 0.000000e+00
8.190693e-07 -8.415609e-06 0.000000e+00
8.381673e-07 -9.111128e-06 0.000000e+00
8.554433e-07 -9.821831e-06 0.000000e+00
8.708974e-07 -1.054620e-05 0.000000e+00
8.845295e-07 -1.128271e-05 0.000000e+00
8.963397e-07 -1.202985e-05 0.000000e+00
9.063280e-07 -1.278611e-05 0.000000e+00
9.144938e-07 -1.354995e-05 0.000000e+00
9.208361e-07 -1.431987e-05 0.000000e+00
9.253517e-07 -1.509432e-05 0.000000e+00
9.280368e-07 -1.587169e-05 0.000000e+00
9.289286e-07 -1.665004e-05 0.000000e+00
0.000000e+00 0.000000e+00 0.000000e+00
7.387960e-08 -3.807139e-08 0.000000e+00
1.477334e-07 -1.121383e-07 0.000000e+00
2.194137e-07 -2.306335e-07 0.000000e+00
2.886407e-07 -3.930417e-07 0.000000e+00
3.554100e-07 -5.979300e-07 0.000000e+00
4.197457e-07 -8.437915e-07 0.000000e+00
4.816554e-07 -1.129119e-06 0.000000e+00
5.411386e-07 -1.452402e-06 0.000000e+00
5.981936e-07 -1.812123e-06 0.000000e+00
6.528196e-07 -2.206765e-06 0.000000e+00
7.050164e-07 -2.634810e-06 0.000000e+00
7.547839e-07 -3.094739e-06 0.000000e+00
8.021222e-07 -3.585034e-06 0.000000e+00
8.470312e-07 -4.104177e-06 0.000000e+00
8.895109e-07 -4.650649e-06 0.000000e+00
9.295613e-07 -5.222932e-06 0.000000e+00
9.671825e-07 -5.819507e-06 0.000000e+00
1.002374e-06 -6.438857e-06 0.000000e+00
1.035137e-06 -7.079464e-06 0.000000e+00
1.065470e-06 -7.739807e-06 0.000000e+00
1.093374e-06 -8.418371e-06 0.000000e+00
1.118849e-06 -9.113636e-06 0.000000e+00
1.141895e-06 -9.824083e-06 0.000000e+00
1.162511e-06 -1.054820e-05 0.000000e+00
1.180698e-06 -1.128445e-05 0.000000e+00
1.196456e-06 -1.203134e-05 0.000000e+00
1.209784e-06 -1.278734e-05 0.000000e+00
1.220681e-06 -1.355093e-05 0.000000e+00
1.229140e-06 -1.432059e-05 0.000000e+00
1.235140e-06 -1.509478e-05 0.000000e+00
1.238650e-06 -1.587189e-05 0.000000e+00
1.239807e-06 -1.665005e-05 0.000000e+00

SCALARS Displacement_Magnitude float
LOOKUP_TABLE default
0.000000e+00
8.539410e-08
1.865912e-07
3.190062e-07
4.881833e-07
6.960946e-07
9.429416e-07
1.228082e-06
1.550466e-06
1.908838e-06
2.301838e-06
2.728041e-06
3.185991e-06
3.674211e-06
4.191210e-06
4.735488e-06
5.305543e-06
5.899866e-06
6.516947e-06
7.155273e-06
7.813331e-06
8.489607e-06
9.182585e-06
9.890750e-06
1.061259e-05
1.134658e-05
1.209120e-05
1.284495e-05
1.360631e-05
1.437376e-05
1.514578e-05
1.592067e-05
1.669649e-05
0.000000e+00
6.255265e-08
1.524310e-07
2.774611e-07
4.425732e-07
6.484863e-07
8.945453e-07
1.179614e-06
1.502365e-06
1.861384e-06
2.255213e-06
2.682370e-06
3.141361e-06
3.630682e-06
4.148826e-06
4.694282e-06
5.265537e-06
5.861077e-06
6.479386e-06
7.118950e-06
7.778250e-06
8.455772e-06
9.149997e-06
9.859409e-06
1.058249e-05
1.131772e-05
1.206359e-05
1.281858e-05
1.358116e-05
1.434983e-05
1.512308e-05
1.589922e-05
1.667620e-05
0.000000e+00
4.363876e-08
1.233411e-07
2.440717e-07
4.073158e-07
6.125668e-07
8.585921e-07
1.143975e-06
1.467245e-06
1.826909e-06
2.221464e-06
2.649402e-06
3.109211e-06
3.599377e-06
4.118384e-06
4.664716e-06
5.236856e-06
5.833287e-06
6.452493e-06
7.092954e-06
7.753154e-06
8.431575e-06
9.126699e-06
9.837008e-06
1.056098e-05
1.129711e-05
1.204387e-05
1.279973e-05
1.356320e-05
1.433274e-05
1.510684e-05
1.588394e-05
1.666200e-05
0.000000e+00
2.858621e-08
1.026817e-07
2.218753e-07
3.847705e-07
5.900874e-07
8.363742e-07
1.122125e-06
1.445825e-06
1.805958e-06
2.201008e-06
2.629458e-06
3.089790e-06
3.580487e-06
4.100030e-06
4.646902e-06
5.219585e-06
5.816561e-06
6.436311e-06
7.077317e-06
7.738062e-06
8.417026e-06
9.112692e-06
9.823542e-06
1.054806e-05
1.128472e-05
1.203201e-05
1.278841e-05
1.355240e-05
1.432246e-05
1.509706e-05
1.587477e-05
1.665406e-05
0.000000e+00
2.193169e-08
9.493763e-08
2.139445e-07
3.769229e-07
5.823732e-07
8.288078e-07
1.114716e-06
1.438582e-06
1.798887e-06
2.194112e-06
2.622740e-06
3.083252e-06
3.574130e-06
4.093856e-06
4.640911e-06
5.213777e-06
5.810936e-06
6.430869e-06
7.072058e-06
7.732985e-06
8.412131e-06
9.107979e-06
9.819010e-06
1.054371e-05
1.128055e-05
1.202802e-05
1.278460e-05
1.354876e-05
1.431900e-05
1.509377e-05
1.587160e-05
1.665254e-05
0.000000e+00
2.910180e-08
1.026056e-07
2.216466e-07
3.845780e-07
5.899288e-07
8.362286e-07
1.121983e-06
1.445684e-06
1.805818e-06
2.200869e-06
2.629319e-06
3.089652e-06
3.580349e-06
4.099893e-06
4.646766e-06
5.219449e-06
5.816425e-06
6.436176e-06
7.077183e-06
7.737928e-06
8.416893e-06
9.112560e-06
9.823410e-06
1.054793e-05
1.128459e-05
1.203188e-05
1.278828e-05
1.355228e-05
1.432234e-05
1.509694e-05
1.587455e-05
1.665396e-05
0.000000e+00
4.408283e-08
1.229985e-07
2.436234e-07
4.069592e-07
6.122652e-07
8.583093e-07
1.143697e-06
1.466967e-06
1.826631e-06
2.221187e-06
2.649126e-06
3.108936e-06
3.599103e-06
4.118111e-06
4.664444e-06
5.236585e-06
5.833017e-06
6.452223e-06
7.092686e-06
7.752887e-06
8.431309e-06
9.126434e-06
9.836744e-06
1.056072e-05
1.129685e-05
1.204360e-05
1.279948e-05
1.356294e-05
1.433249e-05
1.510657e-05
1.588361e-05
1.666181e-05
0.000000e+00
6.229746e-08
1.516199e-07
2.768501e-07
4.420994e-07
6.480668e-07
8.941391e-07
1.179208e-06
1.501957e-06
1.860975e-06
2.254803e-06
2.681961e-06
3.140952e-06
3.630274e-06
4.148419e-06
4.693876e-06
5.265132e-06
5.860673e-06
6.478984e-06
7.118549e-06
7.777851e-06
8.455374e-06
9.149600e-06
9.859014e-06
1.058210e-05
1.131733e-05
1.206320e-05
1.281819e-05
1.358078e-05
1.434944e-05
1.512266e-05
1.589880e-05
1.667593e-05
0.000000e+00
8.311213e-08
1.854728e-07
3.183303e-07
4.876426e-07
6.955836e-07
9.424280e-07
1.227559e-06
1.549936e-06
1.908304e-06
2.301301e-06
2.727503e-06
3.185453e-06
3.673673e-06
4.190672e-06
4.734951e-06
5.305007e-06
5.899331e-06
6.516413e-06
7.154741e-06
7.812800e-06
8.489078e-06
9.182057e-06
9.890224e-06
1.061206e-05
1.134605e-05
1.209069e-05
1.284444e-05
1.360580e-05
1.437324e-05
1.514523e-05
1.592015e-05
1.669615e-05

VECTORS Applied_Force float
0.000000e+00 0.000000e+00 0.000000e+00
0.000000e+00 0.000000e+00 0.000000e+00
0.000000e+00 0.000000e+00 0.000000e+00
0.000000e+00 0.000000e+00 0.000000e+00
0.000000e+00 0.000000e+00 0.000000e+00
0.000000e+00 0.000000e+00 0.000000e+00
0.000000e+00 0.000000e+00 0.000000e+00
0.000000e+00 0.000000e+00 0.000000e+00
0.000000e+00 0.000000e+00 0.000000e+00
0.000000e+00 0.000000e+00 0.000000e+00
0.000000e+00 0.000000e+00 0.000000e+00
0.000000e+00 0.000000e+00 0.000000e+00
0.000000e+00 0.000000e+00 0.000000e+00
0.000000e+00 0.000000e+00 0.000000e+00
0.000000e+00 0.000000e+00 0.000000e+00
0.000000e+00 0.000000e+00 0.000000e+00
0.000000e+00 0.000000e+00 0.000000e+00
0.000000e+00 0.000000e+00 0.000000e+00
0.000000e+00 0.000000e+00 0.000000e+00
0.000000e+00 0.000000e+00 0.000000e+00
0.000000e+00 0.000000e+00 0.000000e+00
0.000000e+00 0.000000e+00 0.000000e+00
0.000000e+00 0.000000e+00 0.000000e+00
0.000000e+00 0.000000e+00 0.000000e+00
0.000000e+00 0.000000e+00 0.000000e+00
0.000000e+00 0.000000e+00 0.000000e+00
0.000000e+00 0.000000e+00 0.000000e+00
0.000000e+00 0.000000e+00 0.000000e+00
0.000000e+00 0.000000e+00 0.000000e+00
0.000000e+00 0.000000e+00 0.000000e+00
0.000000e+00 0.000000e+00 0.000000e+00
0.000000e+00 0.000000e+00 0.000000e+00
0.000000e+00 0.000000e+00 0.000000e+00
0.000000e+00 0.000000e+00 0.000000e+00
0.000000e+00 0.000000e+00 0.000000e+00
0.000000e+00 0.000000e+00 0.000000e+00
0.000000e+00 0.000000e+00 0.000000e+00
0.000000e+00 0.000000e+00 0.000000e+00
0.000000e+00 0.000000e+00 0.000000e+00
0.000000e+00 0.000000e+00 0.000000e+00
0.000000e+00 0.000000e+00 0.000000e+00
0.000000e+00 0.000000e+00 0.000000e+00
0.000000e+00 0.000000e+00 0.000000e+00
0.000000e+00 0.000000e+00 0.000000e+00
0.000000e+00 0.000000e+00 0.000000e+00
0.000000e+00 0.000000e+00 0.000000e+00
0.000000e+00 0.000000e+00 0.000000e+00
0.000000e+00 0.000000e+00 0.000000e+00
0.000000e+00 0.000000e+00 0.000000e+00
0.000000e+00 0.000000e+00 0.000000e+00
0.000000e+00 0.000000e+00 0.000000e+00
0.000000e+00 0.000000e+00 0.000000e+00
0.000000e+00 0.000000e+00 0.000000e+00
0.000000e+00 0.000000e+00 0.000000e+00
0.000000e+00 0.000000e+00 0.000000e+00
0.000000e+00 0.000000e+00 0.000000e+00
0.000000e+00 0.000000e+00 0.000000e+00
0.000000e+00 0.000000e+00 0.000000e+00
0.000000e+00 0.000000e+00 0.000000e+00
0.000000e+00 0.000000e+00 0.000000e+00
0.000000e+00 0.000000e+00 0.000000e+00
0.000000e+00 0.000000e+00 0.000000e+00
0.000000e+00 0.000000e+00 0.000000e+00
0.000000e+00 0.000000e+00 0.000000e+00
0.000000e+00 0.000000e+00 0.000000e+00
0.000000e+00 0.000000e+00 0.000000e+00
0.000000e+00 0.000000e+00 0.000000e+00
0.000000e+00 0.000000e+00 0.000000e+00
0.000000e+00 0.000000e+00 0.000000e+00
0.000000e+00 0.000000e+00 0.000000e+00
0.000000e+00 0.000000e+00 0.000000e+00
0.000000e+00 0.000000e+00 0.000000e+00
0.000000e+00 0.000000e+00 0.000000e+00
0.000000e+00 0.000000e+00 0.000000e+00
0.000000e+00 0.000000e+00 0.000000e+00
0.000000e+00 0.000000e+00 0.000000e+00
0.000000e+00 0.000000e+00 0.000000e+00
0.000000e+00 0.000000e+00 0.000000e+00
0.000000e+00 0.000000e+00 0.000000e+00
0.000000e+00 0.000000e+00 0.000000e+00
0.000000e+00 0.000000e+00 0.000000e+00
0.000000e+00 0.000000e+00 0.000000e+00
0.000000e+00 0.000000e+00 0.000000e+00
0.000000e+00 0.000000e+00 0.000000e+00
0.000000e+00 0.000000e+00 0.000000e+00
0.000000e+00 0.000000e+00 0.000000e+00
0.000000e+00 0.000000e+00 0.000000e+00
0.000000e+00 0.000000e+00 0.000000e+00
0.000000e+00 0.000000e+00 0.000000e+00
0.000000e+00 0.000000e+00 0.000000e+00
0.000000e+00 0.000000e+00 0.000000e+00
0.000000e+00 0.000000e+00 0.000000e+00
0.000000e+00 0.000000e+00 0.000000e+00
0.000000e+00 0.000000e+00 0.000000e+00
0.000000e+00 0.000000e+00 0.000000e+00
0.000000e+00 0.000000e+00 0.000000e+00
0.000000e+00 0.000000e+00 0.000000e+00
0.000000e+00 0.000000e+00 0.000000e+00
0.000000e+00 0.000000e+00 0.000000e+00
0.000000e+00 0.000000e+00 0.000000e+00
0.000000e+00 0.000000e+00 0.000000e+00
0.000000e+00 0.000000e+00 0.000000e+00
0.000000e+00 0.000000e+00 0.000000e+00
0.000000e+00 0.000000e+00 0.000000e+00
0.000000e+00 0.000000e+00 0.000000e+00
0.000000e+00 0.000000e+00 0.000000e+00
0.000000e+00 0.000000e+00 0.000000e+00
0.000000e+00 0.000000e+00 0.000000e+00
0.000000e+00 0.000000e+00 0.000000e+00
0.000000e+00 0.000000e+00 0.000000e+00
0.000000e+00 0.000000e+00 0.000000e+00
0.000000e+00 0.000000e+00 0.000000e+00
0.000000e+00 0.000000e+00 0.000000e+00
0.000000e+00 0.000000e+00 0.000000e+00
0.000000e+00 0.000000e+00 0.000000e+00
0.000000e+00 0.000000e+00 0.000000e+00
0.000000e+00 0.000000e+00 0.000000e+00
0.000000e+00 0.000000e+00 0.000000e+00
0.000000e+00 0.000000e+00 0.000000e+00
0.000000e+00 0.000000e+00 0.000000e+00
0.000000e+00 0.000000e+00 0.000000e+00
0.000000e+00 0.000000e+00 0.000000e+00
0.000000e+00 0.000000e+00 0.000000e+00
0.000000e+00 0.000000e+00 0.000000e+00
0.000000e+00 0.000000e+00 0.000000e+00
0.000000e+00 0.000000e+00 0.000000e+00
0.000000e+00 0.000000e+00 0.000000e+00
0.000000e+00 0.000000e+00 0.000000e+00
0.000000e+00 0.000000e+00 0.000000e+00
0.000000e+00 0.000000e+00 0.000000e+00
0.000000e+00 0.000000e+00 0.000000e+00
0.000000e+00 0.000000e+00 0.000000e+00
0.000000e+00 0.000000e+00 0.000000e+00
0.000000e+00 0.000000e+00 0.000000e+00
0.000000e+00 0.000000e+00 0.000000e+00
0.000000e+00 0.000000e+00 0.000000e+00
0.000000e+00 0.000000e+00 0.000000e+00
0.000000e+00 0.000000e+00 0.000000e+00
0.000000e+00 0.000000e+00 0.000000e+00
0.000000e+00 0.000000e+00 0.000000e+00
0.000000e+00 0.000000e+00 0.000000e+00
0.000000e+00 0.000000e+00 0.000000e+00
0.000000e+00 0.000000e+00 0.000000e+00
0.000000e+00 0.000000e+00 0.000000e+00
0.000000e+00 0.000000e+00 0.000000e+00
0.000000e+00 0.000000e+00 0.000000e+00
0.000000e+00 0.000000e+00 0.000000e+00
0.000000e+00 0.000000e+00 0.000000e+00
0.000000e+00 0.000000e+00 0.000000e+00
0.000000e+00 0.000000e+00 0.000000e+00
0.000000e+00 0.000000e+00 0.000000e+00
0.000000e+00 0.000000e+00 0.000000e+00
0.000000e+00 0.000000e+00 0.000000e+00
0.000000e+00 0.000000e+00 0.000000e+00
0.000000e+00 0.000000e+00 0.000000e+00
0.000000e+00 0.000000e+00 0.000000e+00
0.000000e+00 0.000000e+00 0.000000e+00
0.000000e+00 0.000000e+00 0.000000e+00
0.000000e+00 0.000000e+00 0.000000e+00
0.000000e+00 0.000000e+00 0.000000e+00
0.000000e+00 0.000000e+00 0.000000e+00
0.000000e+00 0.000000e+00 0.000000e+00
0.000000e+00 0.000000e+00 0.000000e+00
0.000000e+00 0.000000e+00 0.000000e+00
0.000000e+00 -1.000000e+03 0.000000e+00
0.000000e+00 0.000000e+00 0.000000e+00
0.000000e+00 0.000000e+00 0.000000e+00
0.000000e+00 0.000000e+00 0.000000e+00
0.000000e+00 0.000000e+00 0.000000e+00
0.000000e+00 0.000000e+00 0.000000e+00
0.000000e+00 0.000000e+00 0.000000e+00
0.000000e+00 0.000000e+00 0.000000e+00
0.000000e+00 0.000000e+00 0.000000e+00
0.000000e+00 0.000000e+00 0.000000e+00
0.000000e+00 0.000000e+00 0.000000e+00
0.000000e+00 0.000000e+00 0.000000e+00
0.000000e+00 0.000000e+00 0.000000e+00
0.000000e+00 0.000000e+00 0.000000e+00
0.000000e+00 0.000000e+00 0.000000e+00
0.000000e+00 0.000000e+00 0.000000e+00
0.000000e+00 0.000000e+00 0.000000e+00
0.000000e+00 0.000000e+00 0.000000e+00
0.000000e+00 0.000000e+00 0.000000e+00
0.000000e+00 0.000000e+00 0.000000e+00
0.000000e+00 0.000000e+00 0.000000e+00
0.000000e+00 0.000000e+00 0.000000e+00
0.000000e+00 0.000000e+00 0.000000e+00
0.000000e+00 0.000000e+00 0.000000e+00
0.000000e+00 0.000000e+00 0.000000e+00
0.000000e+00 0.000000e+00 0.000000e+00
0.000000e+00 0.000000e+00 0.000000e+00
0.000000e+00 0.000000e+00 0.000000e+00
0.000000e+00 0.000000e+00 0.000000e+00
0.000000e+00 0.000000e+00 0.000000e+00
0.000000e+00 0.000000e+00 0.000000e+00
0.000000e+00 0.000000e+00 0.000000e+00
0.000000e+00 0.000000e+00 0.000000e+00
0.000000e+00 0.000000e+00 0.000000e+00
0.000000e+00 0.000000e+00 0.000000e+00
0.000000e+00 0.000000e+00 0.000000e+00
0.000000e+00 0.000000e+00 0.000000e+00
0.000000e+00 0.000000e+00 0.000000e+00
0.000000e+00 0.000000e+00 0.000000e+00
0.000000e+00 0.000000e+00 0.000000e+00
0.000000e+00 0.000000e+00 0.000000e+00
0.000000e+00 0.000000e+00 0.000000e+00
0.000000e+00 0.000000e+00 0.000000e+00
0.000000e+00 0.000000e+00 0.000000e+00
0.000000e+00 0.000000e+00 0.000000e+00
0.000000e+00 0.000000e+00 0.000000e+00
0.000000e+00 0.000000e+00 0.000000e+00
0.000000e+00 0.000000e+00 0.000000e+00
0.000000e+00 0.000000e+00 0.000000e+00
0.000000e+00 0.000000e+00 0.000000e+00
0.000000e+00 0.000000e+00 0.000000e+00
0.000000e+00 0.000000e+00 0.000000e+00
0.000000e+00 0.000000e+00 0.000000e+00
0.000000e+00 0.000000e+00 0.000000e+00
0.000000e+00 0.000000e+00 0.000000e+00
0.000000e+00 0.000000e+00 0.000000e+00
0.000000e+00 0.000000e+00 0.000000e+00
0.000000e+00 0.000000e+00 0.000000e+00
0.000000e+00 0.000000e+00 0.000000e+00
0.000000e+00 0.000000e+00 0.000000e+00
0.000000e+00 0.000000e+00 0.000000e+00
0.000000e+00 0.000000e+00 0.000000e+00
0.000000e+00 0.000000e+00 0.000000e+00
0.000000e+00 0.000000e+00 0.000000e+00
0.000000e+00 0.000000e+00 0.000000e+00
0.000000e+00 0.000000e+00 0.000000e+00
0.000000e+00 0.000000e+00 0.000000e+00
0.000000e+00 0.000000e+00 0.000000e+00
0.000000e+00 0.000000e+00 0.000000e+00
0.000000e+00 0.000000e+00 0.000000e+00
0.000000e+00 0.000000e+00 0.000000e+00
0.000000e+00 0.000000e+00 0.000000e+00
0.000000e+00 0.000000e+00 0.000000e+00
0.000000e+00 0.000000e+00 0.000000e+00
0.000000e+00 0.000000e+00 0.000000e+00
0.000000e+00 0.000000e+00 0.000000e+00
0.000000e+00 0.000000e+00 0.000000e+00
0.000000e+00 0.000000e+00 0.000000e+00
0.000000e+00 0.000000e+00 0.000000e+00
0.000000e+00 0.000000e+00 0.000000e+00
0.000000e+00 0.000000e+00 0.000000e+00
0.000000e+00 0.000000e+00 0.000000e+00
0.000000e+00 0.000000e+00 0.000000e+00
0.000000e+00 0.000000e+00 0.000000e+00
0.000000e+00 0.000000e+00 0.000000e+00
0.000000e+00 0.000000e+00 0.000000e+00
0.000000e+00 0.000000e+00 0.000000e+00
0.000000e+00 0.000000e+00 0.000000e+00
0.000000e+00 0.000000e+00 0.000000e+00
0.000000e+00 0.000000e+00 0.000000e+00
0.000000e+00 0.000000e+00 0.000000e+00
0.000000e+00 0.000000e+00 0.000000e+00
0.000000e+00 0.000000e+00 0.000000e+00
0.000000e+00 0.000000e+00 0.000000e+00
0.000000e+00 0.000000e+00 0.000000e+00
0.000000e+00 0.000000e+00 0.000000e+00
0.000000e+00 0.000000e+00 0.000000e+00
0.000000e+00 0.000000e+00 0.000000e+00
0.000000e+00 0.000000e+00 0.000000e+00
0.000000e+00 0.000000e+00 0.000000e+00
0.000000e+00 0.000000e+00 0.000000e+00
0.000000e+00 0.000000e+00 0.000000e+00
0.000000e+00 0.000000e+00 0.000000e+00
0.000000e+00 0.000000e+00 0.000000e+00
0.000000e+00 0.000000e+00 0.000000e+00
0.000000e+00 0.000000e+00 0.000000e+00
0.000000e+00 0.000000e+00 0.000000e+00
0.000000e+00 0.000000e+00 0.000000e+00
0.000000e+00 0.000000e+00 0.000000e+00
0.000000e+00 0.000000e+00 0.000000e+00
0.000000e+00 0.000000e+00 0.000000e+00
0.000000e+00 0.000000e+00 0.000000e+00
0.000000e+00 0.000000e+00 0.000000e+00
0.000000e+00 0.000000e+00 0.000000e+00
0.000000e+00 0.000000e+00 0.000000e+00
0.000000e+00 0.000000e+00 0.000000e+00
0.000000e+00 0.000000e+00 0.000000e+00
0.000000e+00 0.000000e+00 0.000000e+00
0.000000e+00 0.000000e+00 0.000000e+00
0.000000e+00 0.000000e+00 0.000000e+00
0.000000e+00 0.000000e+00 0.000000e+00
0.000000e+00 0.000000e+00 0.000000e+00
0.000000e+00 0.000000e+00 0.000000e+00
0.000000e+00 0.000000e+00 0.000000e+00
0.000000e+00 0.000000e+00 0.000000e+00
0.000000e+00 0.000000e+00 0.000000e+00
0.000000e+00 0.000000e+00 0.000000e+00
0.000000e+00 0.000000e+00 0.000000e+00
0.000000e+00 0.000000e+00 0.000000e+00
0.000000e+00 0.000000e+00 0.000000e+00
0.000000e+00 0.000000e+00 0.000000e+00
0.000000e+00 0.000000e+00 0.000000e+00
0.000000e+00 0.000000e+00 0.000000e+00

CELL_DATA 512
SCALARS Von_Mises_Stress float
LOOKUP_TABLE default
0.000000e+00
0.000000e+00
0.000000e+00
0.000000e+00
0.000000e+00
0.000000e+00
0.000000e+00
0.000000e+00
0.000000e+00
0.000000e+00
0.000000e+00
0.000000e+00
0.000000e+00
0.000000e+00
0.000000e+00
0.000000e+00
0.000000e+00
0.000000e+00
0.000000e+00
0.000000e+00
0.000000e+00
0.000000e+00
0.000000e+00
0.000000e+00
0.000000e+00
0.000000e+00
0.000000e+00
0.000000e+00
0.000000e+00
0.000000e+00
0.000000e+00
0.000000e+00
0.000000e+00
0.000000e+00
0.000000e+00
0.000000e+00
0.000000e+00
0.000000e+00
0.000000e+00
0.000000e+00
0.000000e+00
0.000000e+00
0.000000e+00
0.000000e+00
0.000000e+00
0.000000e+00
0.000000e+00
0.000000e+00
0.000000e+00
0.000000e+00
0.000000e+00
0.000000e+00
0.000000e+00
0.000000e+00
0.000000e+00
0.000000e+00
0.000000e+00
0.000000e+00
0.000000e+00
0.000000e+00
0.000000e+00
0.000000e+00
0.000000e+00
0.000000e+00
0.000000e+00
0.000000e+00
0.000000e+00
0.000000e+00
0.000000e+00
0.000000e+00
0.000000e+00
0.000000e+00
0.000000e+00
0.000000e+00
0.000000e+00
0.000000e+00
0.000000e+00
0.000000e+00
0.000000e+00
0.000000e+00
0.000000e+00
0.000000e+00
0.000000e+00
0.000000e+00
0.000000e+00
0.000000e+00
0.000000e+00
0.000000e+00
0.000000e+00
0.000000e+00
0.000000e+00
0.000000e+00
0.000000e+00
0.000000e+00
0.000000e+00
0.000000e+00
0.000000e+00
0.000000e+00
0.000000e+00
0.000000e+00
0.000000e+00
0.000000e+00
0.000000e+00
0.000000e+00
0.000000e+00
0.000000e+00
0.000000e+00
0.000000e+00
0.000000e+00
0.000000e+00
0.000000e+00
0.000000e+00
0.000000e+00
0.000000e+00
0.000000e+00
0.000000e+00
0.000000e+00
0.000000e+00
0.000000e+00
0.000000e+00
0.000000e+00
0.000000e+00
0.000000e+00
0.000000e+00
0.000000e+00
0.000000e+00
0.000000e+00
0.000000e+00
0.000000e+00
0.000000e+00
0.000000e+00
0.000000e+00
0.000000e+00
0.000000e+00
0.000000e+00
0.000000e+00
0.000000e+00
0.000000e+00
0.000000e+00
0.000000e+00
0.000000e+00
0.000000e+00
0.000000e+00
0.000000e+00
0.000000e+00
0.000000e+00
0.000000e+00
0.000000e+00
0.000000e+00
0.000000e+00
0.000000e+00
0.000000e+00
0.000000e+00
0.000000e+00
0.000000e+00
0.000000e+00
0.000000e+00
0.000000e+00
0.000000e+00
0.000000e+00
0.000000e+00
0.000000e+00
0.000000e+00
0.000000e+00
0.000000e+00
0.000000e+00
0.000000e+00
0.000000e+00
0.000000e+00
0.000000e+00
0.000000e+00
0.000000e+00
0.000000e+00
0.000000e+00
0.000000e+00
0.000000e+00
0.000000e+00
0.000000e+00
0.000000e+00
0.000000e+00
0.000000e+00
0.000000e+00
0.000000e+00
0.000000e+00
0.000000e+00
0.000000e+00
0.000000e+00
0.000000e+00
0.000000e+00
0.000000e+00
0.000000e+00
0.000000e+00
0.000000e+00
0.000000e+00
0.000000e+00
0.000000e+00
0.000000e+00
0.000000e+00
0.000000e+00
0.000000e+00
0.000000e+00
0.000000e+00
0.000000e+00
0.000000e+00
0.000000e+00
0.000000e+00
0.000000e+00
0.000000e+00
0.000000e+00
0.000000e+00
0.000000e+00
0.000000e+00
0.000000e+00
0.000000e+00
0.000000e+00
0.000000e+00
0.000000e+00
0.000000e+00
0.000000e+00
0.000000e+00
0.000000e+00
0.000000e+00
0.000000e+00
0.000000e+00
0.000000e+00
0.000000e+00
0.000000e+00
0.000000e+00
0.000000e+00
0.000000e+00
0.000000e+00
0.000000e+00
0.000000e+00
0.000000e+00
0.000000e+00
0.000000e+00
0.000000e+00
0.000000e+00
0.000000e+00
0.000000e+00
0.000000e+00
0.000000e+00
0.000000e+00
0.000000e+00
0.000000e+00
0.000000e+00
0.000000e+00
0.000000e+00
0.000000e+00
0.000000e+00
0.000000e+00
0.000000e+00
0.000000e+00
0.000000e+00
0.000000e+00
0.000000e+00
0.000000e+00
0.000000e+00
0.000000e+00
0.000000e+00
0.000000e+00
0.000000e+00
0.000000e+00
0.000000e+00
0.000000e+00
0.000000e+00
0.000000e+00
0.000000e+00
0.000000e+00
0.000000e+00
0.000000e+00
0.000000e+00
0.000000e+00
0.000000e+00
0.000000e+00
0.000000e+00
0.000000e+00
0.000000e+00
0.000000e+00
0.000000e+00
0.000000e+00
0.000000e+00
0.000000e+00
0.000000e+00
0.000000e+00
0.000000e+00
0.000000e+00
0.000000e+00
0.000000e+00
0.000000e+00
0.000000e+00
0.000000e+00
0.000000e+00
0.000000e+00
0.000000e+00
0.000000e+00
0.000000e+00
0.000000e+00
0.000000e+00
0.000000e+00
0.000000e+00
0.000000e+00
0.000000e+00
0.000000e+00
0.000000e+00
0.000000e+00
0.000000e+00
0.000000e+00
0.000000e+00
0.000000e+00
0.000000e+00
0.000000e+00
0.000000e+00
0.000000e+00
0.000000e+00
0.000000e+00
0.000000e+00
0.000000e+00
0.000000e+00
0.000000e+00
0.000000e+00
0.000000e+00
0.000000e+00
0.000000e+00
0.000000e+00
0.000000e+00
0.000000e+00
0.000000e+00
0.000000e+00
0.000000e+00
0.000000e+00
0.000000e+00
0.000000e+00
0.000000e+00
0.000000e+00
0.000000e+00
0.000000e+00
0.000000e+00
0.000000e+00
0.000000e+00
0.000000e+00
0.000000e+00
0.000000e+00
0.000000e+00
0.000000e+00
0.000000e+00
0.000000e+00
0.000000e+00
0.000000e+00
0.000000e+00
0.000000e+00
0.000000e+00
0.000000e+00
0.000000e+00
0.000000e+00
0.000000e+00
0.000000e+00
0.000000e+00
0.000000e+00
0.000000e+00
0.000000e+00
0.000000e+00
0.000000e+00
0.000000e+00
0.000000e+00
0.000000e+00
0.000000e+00
0.000000e+00
0.000000e+00
0.000000e+00
0.000000e+00
0.000000e+00
0.000000e+00
0.000000e+00
0.000000e+00
0.000000e+00
0.000000e+00
0.000000e+00
0.000000e+00
0.000000e+00
0.000000e+00
0.000000e+00
0.000000e+00
0.000000e+00
0.000000e+00
0.000000e+00
0.000000e+00
0.000000e+00
0.000000e+00
0.000000e+00
0.000000e+00
0.000000e+00
0.000000e+00
0.000000e+00
0.000000e+00
0.000000e+00
0.000000e+00
0.000000e+00
0.000000e+00
0.000000e+00
0.000000e+00
0.000000e+00
0.000000e+00
0.000000e+00
0.000000e+00
0.000000e+00
0.000000e+00
0.000000e+00
0.000000e+00
0.000000e+00
0.000000e+00
0.000000e+00
0.000000e+00
0.000000e+00
0.000000e+00
0.000000e+00
0.000000e+00
0.000000e+00
0.000000e+00
0.000000e+00
0.000000e+00
0.000000e+00
0.000000e+00
0.000000e+00
0.000000e+00
0.000000e+00
0.000000e+00
0.000000e+00
0.000000e+00
0.000000e+00
0.000000e+00
0.000000e+00
0.000000e+00
0.000000e+00
0.000000e+00
0.000000e+00
0.000000e+00
0.000000e+00
0.000000e+00
0.000000e+00
0.000000e+00
0.000000e+00
0.000000e+00
0.000000e+00
0.000000e+00
0.000000e+00
0.000000e+00
0.000000e+00
0.000000e+00
0.000000e+00
0.000000e+00
0.000000e+00
0.000000e+00
0.000000e+00
0.000000e+00
0.000000e+00
0.000000e+00
0.000000e+00
0.000000e+00
0.000000e+00
0.000000e+00
0.000000e+00
0.000000e+00
0.000000e+00
0.000000e+00
0.000000e+00
0.000000e+00
0.000000e+00
0.000000e+00
0.000000e+00
0.000000e+00
0.000000e+00
0.000000e+00
0.000000e+00
0.000000e+00
0.000000e+00
0.000000e+00
0.000000e+00
0.000000e+00
0.000000e+00
0.000000e+00
0.000000e+00
0.000000e+00
0.000000e+00
0.000000e+00
0.000000e+00
0.000000e+00
0.000000e+00
0.000000e+00
0.000000e+00
0.000000e+00
0.000000e+00
0.000000e+00
0.000000e+00
0.000000e+00
0.000000e+00
0.000000e+00
0.000000e+00
0.000000e+00
0.000000e+00
0.000000e+00
0.000000e+00
0.000000e+00
0.000000e+00
0.000000e+00
0.000000e+00
0.000000e+00
0.000000e+00
0.000000e+00
0.000000e+00
0.000000e+00
0.000000e+00

SCALARS Material_ID int
LOOKUP_TABLE default
1
1
1
1
1
1
1
1
1
1
1
1
1
1
1
1
1
1
1
1
1
1
1
1
1
1
1
1
1
1
1
1
1
1
1
1
1
1
1
1
1
1
1
1
1
1
1
1
1
1
1
1
1
1
1
1
1
1
1
1
1
1
1
1
1
1
1
1
1
1
1
1
1
1
1
1
1
1
1
1
1
1
1
1
1
1
1
1
1
1
1
1
1
1
1
1
1
1
1
1
1
1
1
1
1
1
1
1
1
1
1
1
1
1
1
1
1
1
1
1
1
1
1
1
1
1
1
1
1
1
1
1
1
1
1
1
1
1
1
1
1
1
1
1
1
1
1
1
1
1
1
1
1
1
1
1
1
1
1
1
1
1
1
1
1
1
1
1
1
1
1
1
1
1
1
1
1
1
1
1
1
1
1
1
1
1
1
1
1
1
1
1
1
1
1
1
1
1
1
1
1
1
1
1
1
1
1
1
1
1
1
1
1
1
1
1
1
1
1
1
1
1
1
1
1
1
1
1
1
1
1
1
1
1
1
1
1
1
1
1
1
1
1
1
1
1
1
1
1
1
1
1
1
1
1
1
1
1
1
1
1
1
1
1
1
1
1
1
1
1
1
1
1
1
1
1
1
1
1
1
1
1
1
1
1
1
1
1
1
1
1
1
1
1
1
1
1
1
1
1
1
1
1
1
1
1
1
1
1
1
1
1
1
1
1
1
1
1
1
1
1
1
1
1
1
1
1
1
1
1
1
1
1
1
1
1
1
1
1
1
1
1
1
1
1
1
1
1
1
1
1
1
1
1
1
1
1
1
1
1
1
1
1
1
1
1
1
1
1
1
1
1
1
1
1
1
1
1
1
1
1
1
1
1
1
1
1
1
1
1
1
1
1
1
1
1
1
1
1
1
1
1
1
1
1
1
1
1
1
1
1
1
1
1
1
1
1
1
1
1
1
1
1
1
1
1
1
1
1
1
1
1
1
1
1
1
1
1
1
1
1
1
1
1
1
1
1
1
1
1
1
1
1
1
1
1
1
1
1
1
1
1
1
1
1
1
1
1
1
1
1
1
1
1
1
1
1
1
1
1
1
1
1
1
1
1
1
1
1
1
1
1
1
1
1
1
1
1
1
1
1
1
1
1
1
1
1
1
1
1
1
1
