# vtk DataFile Version 3.0
FEM4C Analysis Results: T6 Cantilever Beam
ASCII
DATASET UNSTRUCTURED_GRID

POINTS 1105 float
0.000000 0.000000 0.000000
0.031250 0.000000 0.000000
0.062500 0.000000 0.000000
0.093750 0.000000 0.000000
0.125000 0.000000 0.000000
0.156250 0.000000 0.000000
0.187500 0.000000 0.000000
0.218750 0.000000 0.000000
0.250000 0.000000 0.000000
0.281250 0.000000 0.000000
0.312500 0.000000 0.000000
0.343750 0.000000 0.000000
0.375000 0.000000 0.000000
0.406250 0.000000 0.000000
0.437500 0.000000 0.000000
0.468750 0.000000 0.000000
0.500000 0.000000 0.000000
0.531250 0.000000 0.000000
0.562500 0.000000 0.000000
0.593750 0.000000 0.000000
0.625000 0.000000 0.000000
0.656250 0.000000 0.000000
0.687500 0.000000 0.000000
0.718750 0.000000 0.000000
0.750000 0.000000 0.000000
0.781250 0.000000 0.000000
0.812500 0.000000 0.000000
0.843750 0.000000 0.000000
0.875000 0.000000 0.000000
0.906250 0.000000 0.000000
0.937500 0.000000 0.000000
0.968750 0.000000 0.000000
1.000000 0.000000 0.000000
0.000000 0.012500 0.000000
0.031250 0.012500 0.000000
0.062500 0.012500 0.000000
0.093750 0.012500 0.000000
0.125000 0.012500 0.000000
0.156250 0.012500 0.000000
0.187500 0.012500 0.000000
0.218750 0.012500 0.000000
0.250000 0.012500 0.000000
0.281250 0.012500 0.000000
0.312500 0.012500 0.000000
0.343750 0.012500 0.000000
0.375000 0.012500 0.000000
0.406250 0.012500 0.000000
0.437500 0.012500 0.000000
0.468750 0.012500 0.000000
0.500000 0.012500 0.000000
0.531250 0.012500 0.000000
0.562500 0.012500 0.000000
0.593750 0.012500 0.000000
0.625000 0.012500 0.000000
0.656250 0.012500 0.000000
0.687500 0.012500 0.000000
0.718750 0.012500 0.000000
0.750000 0.012500 0.000000
0.781250 0.012500 0.000000
0.812500 0.012500 0.000000
0.843750 0.012500 0.000000
0.875000 0.012500 0.000000
0.906250 0.012500 0.000000
0.937500 0.012500 0.000000
0.968750 0.012500 0.000000
1.000000 0.012500 0.000000
0.000000 0.025000 0.000000
0.031250 0.025000 0.000000
0.062500 0.025000 0.000000
0.093750 0.025000 0.000000
0.125000 0.025000 0.000000
0.156250 0.025000 0.000000
0.187500 0.025000 0.000000
0.218750 0.025000 0.000000
0.250000 0.025000 0.000000
0.281250 0.025000 0.000000
0.312500 0.025000 0.000000
0.343750 0.025000 0.000000
0.375000 0.025000 0.000000
0.406250 0.025000 0.000000
0.437500 0.025000 0.000000
0.468750 0.025000 0.000000
0.500000 0.025000 0.000000
0.531250 0.025000 0.000000
0.562500 0.025000 0.000000
0.593750 0.025000 0.000000
0.625000 0.025000 0.000000
0.656250 0.025000 0.000000
0.687500 0.025000 0.000000
0.718750 0.025000 0.000000
0.750000 0.025000 0.000000
0.781250 0.025000 0.000000
0.812500 0.025000 0.000000
0.843750 0.025000 0.000000
0.875000 0.025000 0.000000
0.906250 0.025000 0.000000
0.937500 0.025000 0.000000
0.968750 0.025000 0.000000
1.000000 0.025000 0.000000
0.000000 0.037500 0.000000
0.031250 0.037500 0.000000
0.062500 0.037500 0.000000
0.093750 0.037500 0.000000
0.125000 0.037500 0.000000
0.156250 0.037500 0.000000
0.187500 0.037500 0.000000
0.218750 0.037500 0.000000
0.250000 0.037500 0.000000
0.281250 0.037500 0.000000
0.312500 0.037500 0.000000
0.343750 0.037500 0.000000
0.375000 0.037500 0.000000
0.406250 0.037500 0.000000
0.437500 0.037500 0.000000
0.468750 0.037500 0.000000
0.500000 0.037500 0.000000
0.531250 0.037500 0.000000
0.562500 0.037500 0.000000
0.593750 0.037500 0.000000
0.625000 0.037500 0.000000
0.656250 0.037500 0.000000
0.687500 0.037500 0.000000
0.718750 0.037500 0.000000
0.750000 0.037500 0.000000
0.781250 0.037500 0.000000
0.812500 0.037500 0.000000
0.843750 0.037500 0.000000
0.875000 0.037500 0.000000
0.906250 0.037500 0.000000
0.937500 0.037500 0.000000
0.968750 0.037500 0.000000
1.000000 0.037500 0.000000
0.000000 0.050000 0.000000
0.031250 0.050000 0.000000
0.062500 0.050000 0.000000
0.093750 0.050000 0.000000
0.125000 0.050000 0.000000
0.156250 0.050000 0.000000
0.187500 0.050000 0.000000
0.218750 0.050000 0.000000
0.250000 0.050000 0.000000
0.281250 0.050000 0.000000
0.312500 0.050000 0.000000
0.343750 0.050000 0.000000
0.375000 0.050000 0.000000
0.406250 0.050000 0.000000
0.437500 0.050000 0.000000
0.468750 0.050000 0.000000
0.500000 0.050000 0.000000
0.531250 0.050000 0.000000
0.562500 0.050000 0.000000
0.593750 0.050000 0.000000
0.625000 0.050000 0.000000
0.656250 0.050000 0.000000
0.687500 0.050000 0.000000
0.718750 0.050000 0.000000
0.750000 0.050000 0.000000
0.781250 0.050000 0.000000
0.812500 0.050000 0.000000
0.843750 0.050000 0.000000
0.875000 0.050000 0.000000
0.906250 0.050000 0.000000
0.937500 0.050000 0.000000
0.968750 0.050000 0.000000
1.000000 0.050000 0.000000
0.000000 0.062500 0.000000
0.031250 0.062500 0.000000
0.062500 0.062500 0.000000
0.093750 0.062500 0.000000
0.125000 0.062500 0.000000
0.156250 0.062500 0.000000
0.187500 0.062500 0.000000
0.218750 0.062500 0.000000
0.250000 0.062500 0.000000
0.281250 0.062500 0.000000
0.312500 0.062500 0.000000
0.343750 0.062500 0.000000
0.375000 0.062500 0.000000
0.406250 0.062500 0.000000
0.437500 0.062500 0.000000
0.468750 0.062500 0.000000
0.500000 0.062500 0.000000
0.531250 0.062500 0.000000
0.562500 0.062500 0.000000
0.593750 0.062500 0.000000
0.625000 0.062500 0.000000
0.656250 0.062500 0.000000
0.687500 0.062500 0.000000
0.718750 0.062500 0.000000
0.750000 0.062500 0.000000
0.781250 0.062500 0.000000
0.812500 0.062500 0.000000
0.843750 0.062500 0.000000
0.875000 0.062500 0.000000
0.906250 0.062500 0.000000
0.937500 0.062500 0.000000
0.968750 0.062500 0.000000
1.000000 0.062500 0.000000
0.000000 0.075000 0.000000
0.031250 0.075000 0.000000
0.062500 0.075000 0.000000
0.093750 0.075000 0.000000
0.125000 0.075000 0.000000
0.156250 0.075000 0.000000
0.187500 0.075000 0.000000
0.218750 0.075000 0.000000
0.250000 0.075000 0.000000
0.281250 0.075000 0.000000
0.312500 0.075000 0.000000
0.343750 0.075000 0.000000
0.375000 0.075000 0.000000
0.406250 0.075000 0.000000
0.437500 0.075000 0.000000
0.468750 0.075000 0.000000
0.500000 0.075000 0.000000
0.531250 0.075000 0.000000
0.562500 0.075000 0.000000
0.593750 0.075000 0.000000
0.625000 0.075000 0.000000
0.656250 0.075000 0.000000
0.687500 0.075000 0.000000
0.718750 0.075000 0.000000
0.750000 0.075000 0.000000
0.781250 0.075000 0.000000
0.812500 0.075000 0.000000
0.843750 0.075000 0.000000
0.875000 0.075000 0.000000
0.906250 0.075000 0.000000
0.937500 0.075000 0.000000
0.968750 0.075000 0.000000
1.000000 0.075000 0.000000
0.000000 0.087500 0.000000
0.031250 0.087500 0.000000
0.062500 0.087500 0.000000
0.093750 0.087500 0.000000
0.125000 0.087500 0.000000
0.156250 0.087500 0.000000
0.187500 0.087500 0.000000
0.218750 0.087500 0.000000
0.250000 0.087500 0.000000
0.281250 0.087500 0.000000
0.312500 0.087500 0.000000
0.343750 0.087500 0.000000
0.375000 0.087500 0.000000
0.406250 0.087500 0.000000
0.437500 0.087500 0.000000
0.468750 0.087500 0.000000
0.500000 0.087500 0.000000
0.531250 0.087500 0.000000
0.562500 0.087500 0.000000
0.593750 0.087500 0.000000
0.625000 0.087500 0.000000
0.656250 0.087500 0.000000
0.687500 0.087500 0.000000
0.718750 0.087500 0.000000
0.750000 0.087500 0.000000
0.781250 0.087500 0.000000
0.812500 0.087500 0.000000
0.843750 0.087500 0.000000
0.875000 0.087500 0.000000
0.906250 0.087500 0.000000
0.937500 0.087500 0.000000
0.968750 0.087500 0.000000
1.000000 0.087500 0.000000
0.000000 0.100000 0.000000
0.031250 0.100000 0.000000
0.062500 0.100000 0.000000
0.093750 0.100000 0.000000
0.125000 0.100000 0.000000
0.156250 0.100000 0.000000
0.187500 0.100000 0.000000
0.218750 0.100000 0.000000
0.250000 0.100000 0.000000
0.281250 0.100000 0.000000
0.312500 0.100000 0.000000
0.343750 0.100000 0.000000
0.375000 0.100000 0.000000
0.406250 0.100000 0.000000
0.437500 0.100000 0.000000
0.468750 0.100000 0.000000
0.500000 0.100000 0.000000
0.531250 0.100000 0.000000
0.562500 0.100000 0.000000
0.593750 0.100000 0.000000
0.625000 0.100000 0.000000
0.656250 0.100000 0.000000
0.687500 0.100000 0.000000
0.718750 0.100000 0.000000
0.750000 0.100000 0.000000
0.781250 0.100000 0.000000
0.812500 0.100000 0.000000
0.843750 0.100000 0.000000
0.875000 0.100000 0.000000
0.906250 0.100000 0.000000
0.937500 0.100000 0.000000
0.968750 0.100000 0.000000
1.000000 0.100000 0.000000
0.015625 0.000000 0.000000
0.031250 0.006250 0.000000
0.015625 0.006250 0.000000
0.015625 0.012500 0.000000
0.000000 0.006250 0.000000
0.046875 0.000000 0.000000
0.062500 0.006250 0.000000
0.046875 0.006250 0.000000
0.046875 0.012500 0.000000
0.078125 0.000000 0.000000
0.093750 0.006250 0.000000
0.078125 0.006250 0.000000
0.078125 0.012500 0.000000
0.109375 0.000000 0.000000
0.125000 0.006250 0.000000
0.109375 0.006250 0.000000
0.109375 0.012500 0.000000
0.140625 0.000000 0.000000
0.156250 0.006250 0.000000
0.140625 0.006250 0.000000
0.140625 0.012500 0.000000
0.171875 0.000000 0.000000
0.187500 0.006250 0.000000
0.171875 0.006250 0.000000
0.171875 0.012500 0.000000
0.203125 0.000000 0.000000
0.218750 0.006250 0.000000
0.203125 0.006250 0.000000
0.203125 0.012500 0.000000
0.234375 0.000000 0.000000
0.250000 0.006250 0.000000
0.234375 0.006250 0.000000
0.234375 0.012500 0.000000
0.265625 0.000000 0.000000
0.281250 0.006250 0.000000
0.265625 0.006250 0.000000
0.265625 0.012500 0.000000
0.296875 0.000000 0.000000
0.312500 0.006250 0.000000
0.296875 0.006250 0.000000
0.296875 0.012500 0.000000
0.328125 0.000000 0.000000
0.343750 0.006250 0.000000
0.328125 0.006250 0.000000
0.328125 0.012500 0.000000
0.359375 0.000000 0.000000
0.375000 0.006250 0.000000
0.359375 0.006250 0.000000
0.359375 0.012500 0.000000
0.390625 0.000000 0.000000
0.406250 0.006250 0.000000
0.390625 0.006250 0.000000
0.390625 0.012500 0.000000
0.421875 0.000000 0.000000
0.437500 0.006250 0.000000
0.421875 0.006250 0.000000
0.421875 0.012500 0.000000
0.453125 0.000000 0.000000
0.468750 0.006250 0.000000
0.453125 0.006250 0.000000
0.453125 0.012500 0.000000
0.484375 0.000000 0.000000
0.500000 0.006250 0.000000
0.484375 0.006250 0.000000
0.484375 0.012500 0.000000
0.515625 0.000000 0.000000
0.531250 0.006250 0.000000
0.515625 0.006250 0.000000
0.515625 0.012500 0.000000
0.546875 0.000000 0.000000
0.562500 0.006250 0.000000
0.546875 0.006250 0.000000
0.546875 0.012500 0.000000
0.578125 0.000000 0.000000
0.593750 0.006250 0.000000
0.578125 0.006250 0.000000
0.578125 0.012500 0.000000
0.609375 0.000000 0.000000
0.625000 0.006250 0.000000
0.609375 0.006250 0.000000
0.609375 0.012500 0.000000
0.640625 0.000000 0.000000
0.656250 0.006250 0.000000
0.640625 0.006250 0.000000
0.640625 0.012500 0.000000
0.671875 0.000000 0.000000
0.687500 0.006250 0.000000
0.671875 0.006250 0.000000
0.671875 0.012500 0.000000
0.703125 0.000000 0.000000
0.718750 0.006250 0.000000
0.703125 0.006250 0.000000
0.703125 0.012500 0.000000
0.734375 0.000000 0.000000
0.750000 0.006250 0.000000
0.734375 0.006250 0.000000
0.734375 0.012500 0.000000
0.765625 0.000000 0.000000
0.781250 0.006250 0.000000
0.765625 0.006250 0.000000
0.765625 0.012500 0.000000
0.796875 0.000000 0.000000
0.812500 0.006250 0.000000
0.796875 0.006250 0.000000
0.796875 0.012500 0.000000
0.828125 0.000000 0.000000
0.843750 0.006250 0.000000
0.828125 0.006250 0.000000
0.828125 0.012500 0.000000
0.859375 0.000000 0.000000
0.875000 0.006250 0.000000
0.859375 0.006250 0.000000
0.859375 0.012500 0.000000
0.890625 0.000000 0.000000
0.906250 0.006250 0.000000
0.890625 0.006250 0.000000
0.890625 0.012500 0.000000
0.921875 0.000000 0.000000
0.937500 0.006250 0.000000
0.921875 0.006250 0.000000
0.921875 0.012500 0.000000
0.953125 0.000000 0.000000
0.968750 0.006250 0.000000
0.953125 0.006250 0.000000
0.953125 0.012500 0.000000
0.984375 0.000000 0.000000
1.000000 0.006250 0.000000
0.984375 0.006250 0.000000
0.984375 0.012500 0.000000
0.031250 0.018750 0.000000
0.015625 0.018750 0.000000
0.015625 0.025000 0.000000
0.000000 0.018750 0.000000
0.062500 0.018750 0.000000
0.046875 0.018750 0.000000
0.046875 0.025000 0.000000
0.093750 0.018750 0.000000
0.078125 0.018750 0.000000
0.078125 0.025000 0.000000
0.125000 0.018750 0.000000
0.109375 0.018750 0.000000
0.109375 0.025000 0.000000
0.156250 0.018750 0.000000
0.140625 0.018750 0.000000
0.140625 0.025000 0.000000
0.187500 0.018750 0.000000
0.171875 0.018750 0.000000
0.171875 0.025000 0.000000
0.218750 0.018750 0.000000
0.203125 0.018750 0.000000
0.203125 0.025000 0.000000
0.250000 0.018750 0.000000
0.234375 0.018750 0.000000
0.234375 0.025000 0.000000
0.281250 0.018750 0.000000
0.265625 0.018750 0.000000
0.265625 0.025000 0.000000
0.312500 0.018750 0.000000
0.296875 0.018750 0.000000
0.296875 0.025000 0.000000
0.343750 0.018750 0.000000
0.328125 0.018750 0.000000
0.328125 0.025000 0.000000
0.375000 0.018750 0.000000
0.359375 0.018750 0.000000
0.359375 0.025000 0.000000
0.406250 0.018750 0.000000
0.390625 0.018750 0.000000
0.390625 0.025000 0.000000
0.437500 0.018750 0.000000
0.421875 0.018750 0.000000
0.421875 0.025000 0.000000
0.468750 0.018750 0.000000
0.453125 0.018750 0.000000
0.453125 0.025000 0.000000
0.500000 0.018750 0.000000
0.484375 0.018750 0.000000
0.484375 0.025000 0.000000
0.531250 0.018750 0.000000
0.515625 0.018750 0.000000
0.515625 0.025000 0.000000
0.562500 0.018750 0.000000
0.546875 0.018750 0.000000
0.546875 0.025000 0.000000
0.593750 0.018750 0.000000
0.578125 0.018750 0.000000
0.578125 0.025000 0.000000
0.625000 0.018750 0.000000
0.609375 0.018750 0.000000
0.609375 0.025000 0.000000
0.656250 0.018750 0.000000
0.640625 0.018750 0.000000
0.640625 0.025000 0.000000
0.687500 0.018750 0.000000
0.671875 0.018750 0.000000
0.671875 0.025000 0.000000
0.718750 0.018750 0.000000
0.703125 0.018750 0.000000
0.703125 0.025000 0.000000
0.750000 0.018750 0.000000
0.734375 0.018750 0.000000
0.734375 0.025000 0.000000
0.781250 0.018750 0.000000
0.765625 0.018750 0.000000
0.765625 0.025000 0.000000
0.812500 0.018750 0.000000
0.796875 0.018750 0.000000
0.796875 0.025000 0.000000
0.843750 0.018750 0.000000
0.828125 0.018750 0.000000
0.828125 0.025000 0.000000
0.875000 0.018750 0.000000
0.859375 0.018750 0.000000
0.859375 0.025000 0.000000
0.906250 0.018750 0.000000
0.890625 0.018750 0.000000
0.890625 0.025000 0.000000
0.937500 0.018750 0.000000
0.921875 0.018750 0.000000
0.921875 0.025000 0.000000
0.968750 0.018750 0.000000
0.953125 0.018750 0.000000
0.953125 0.025000 0.000000
1.000000 0.018750 0.000000
0.984375 0.018750 0.000000
0.984375 0.025000 0.000000
0.031250 0.031250 0.000000
0.015625 0.031250 0.000000
0.015625 0.037500 0.000000
0.000000 0.031250 0.000000
0.062500 0.031250 0.000000
0.046875 0.031250 0.000000
0.046875 0.037500 0.000000
0.093750 0.031250 0.000000
0.078125 0.031250 0.000000
0.078125 0.037500 0.000000
0.125000 0.031250 0.000000
0.109375 0.031250 0.000000
0.109375 0.037500 0.000000
0.156250 0.031250 0.000000
0.140625 0.031250 0.000000
0.140625 0.037500 0.000000
0.187500 0.031250 0.000000
0.171875 0.031250 0.000000
0.171875 0.037500 0.000000
0.218750 0.031250 0.000000
0.203125 0.031250 0.000000
0.203125 0.037500 0.000000
0.250000 0.031250 0.000000
0.234375 0.031250 0.000000
0.234375 0.037500 0.000000
0.281250 0.031250 0.000000
0.265625 0.031250 0.000000
0.265625 0.037500 0.000000
0.312500 0.031250 0.000000
0.296875 0.031250 0.000000
0.296875 0.037500 0.000000
0.343750 0.031250 0.000000
0.328125 0.031250 0.000000
0.328125 0.037500 0.000000
0.375000 0.031250 0.000000
0.359375 0.031250 0.000000
0.359375 0.037500 0.000000
0.406250 0.031250 0.000000
0.390625 0.031250 0.000000
0.390625 0.037500 0.000000
0.437500 0.031250 0.000000
0.421875 0.031250 0.000000
0.421875 0.037500 0.000000
0.468750 0.031250 0.000000
0.453125 0.031250 0.000000
0.453125 0.037500 0.000000
0.500000 0.031250 0.000000
0.484375 0.031250 0.000000
0.484375 0.037500 0.000000
0.531250 0.031250 0.000000
0.515625 0.031250 0.000000
0.515625 0.037500 0.000000
0.562500 0.031250 0.000000
0.546875 0.031250 0.000000
0.546875 0.037500 0.000000
0.593750 0.031250 0.000000
0.578125 0.031250 0.000000
0.578125 0.037500 0.000000
0.625000 0.031250 0.000000
0.609375 0.031250 0.000000
0.609375 0.037500 0.000000
0.656250 0.031250 0.000000
0.640625 0.031250 0.000000
0.640625 0.037500 0.000000
0.687500 0.031250 0.000000
0.671875 0.031250 0.000000
0.671875 0.037500 0.000000
0.718750 0.031250 0.000000
0.703125 0.031250 0.000000
0.703125 0.037500 0.000000
0.750000 0.031250 0.000000
0.734375 0.031250 0.000000
0.734375 0.037500 0.000000
0.781250 0.031250 0.000000
0.765625 0.031250 0.000000
0.765625 0.037500 0.000000
0.812500 0.031250 0.000000
0.796875 0.031250 0.000000
0.796875 0.037500 0.000000
0.843750 0.031250 0.000000
0.828125 0.031250 0.000000
0.828125 0.037500 0.000000
0.875000 0.031250 0.000000
0.859375 0.031250 0.000000
0.859375 0.037500 0.000000
0.906250 0.031250 0.000000
0.890625 0.031250 0.000000
0.890625 0.037500 0.000000
0.937500 0.031250 0.000000
0.921875 0.031250 0.000000
0.921875 0.037500 0.000000
0.968750 0.031250 0.000000
0.953125 0.031250 0.000000
0.953125 0.037500 0.000000
1.000000 0.031250 0.000000
0.984375 0.031250 0.000000
0.984375 0.037500 0.000000
0.031250 0.043750 0.000000
0.015625 0.043750 0.000000
0.015625 0.050000 0.000000
0.000000 0.043750 0.000000
0.062500 0.043750 0.000000
0.046875 0.043750 0.000000
0.046875 0.050000 0.000000
0.093750 0.043750 0.000000
0.078125 0.043750 0.000000
0.078125 0.050000 0.000000
0.125000 0.043750 0.000000
0.109375 0.043750 0.000000
0.109375 0.050000 0.000000
0.156250 0.043750 0.000000
0.140625 0.043750 0.000000
0.140625 0.050000 0.000000
0.187500 0.043750 0.000000
0.171875 0.043750 0.000000
0.171875 0.050000 0.000000
0.218750 0.043750 0.000000
0.203125 0.043750 0.000000
0.203125 0.050000 0.000000
0.250000 0.043750 0.000000
0.234375 0.043750 0.000000
0.234375 0.050000 0.000000
0.281250 0.043750 0.000000
0.265625 0.043750 0.000000
0.265625 0.050000 0.000000
0.312500 0.043750 0.000000
0.296875 0.043750 0.000000
0.296875 0.050000 0.000000
0.343750 0.043750 0.000000
0.328125 0.043750 0.000000
0.328125 0.050000 0.000000
0.375000 0.043750 0.000000
0.359375 0.043750 0.000000
0.359375 0.050000 0.000000
0.406250 0.043750 0.000000
0.390625 0.043750 0.000000
0.390625 0.050000 0.000000
0.437500 0.043750 0.000000
0.421875 0.043750 0.000000
0.421875 0.050000 0.000000
0.468750 0.043750 0.000000
0.453125 0.043750 0.000000
0.453125 0.050000 0.000000
0.500000 0.043750 0.000000
0.484375 0.043750 0.000000
0.484375 0.050000 0.000000
0.531250 0.043750 0.000000
0.515625 0.043750 0.000000
0.515625 0.050000 0.000000
0.562500 0.043750 0.000000
0.546875 0.043750 0.000000
0.546875 0.050000 0.000000
0.593750 0.043750 0.000000
0.578125 0.043750 0.000000
0.578125 0.050000 0.000000
0.625000 0.043750 0.000000
0.609375 0.043750 0.000000
0.609375 0.050000 0.000000
0.656250 0.043750 0.000000
0.640625 0.043750 0.000000
0.640625 0.050000 0.000000
0.687500 0.043750 0.000000
0.671875 0.043750 0.000000
0.671875 0.050000 0.000000
0.718750 0.043750 0.000000
0.703125 0.043750 0.000000
0.703125 0.050000 0.000000
0.750000 0.043750 0.000000
0.734375 0.043750 0.000000
0.734375 0.050000 0.000000
0.781250 0.043750 0.000000
0.765625 0.043750 0.000000
0.765625 0.050000 0.000000
0.812500 0.043750 0.000000
0.796875 0.043750 0.000000
0.796875 0.050000 0.000000
0.843750 0.043750 0.000000
0.828125 0.043750 0.000000
0.828125 0.050000 0.000000
0.875000 0.043750 0.000000
0.859375 0.043750 0.000000
0.859375 0.050000 0.000000
0.906250 0.043750 0.000000
0.890625 0.043750 0.000000
0.890625 0.050000 0.000000
0.937500 0.043750 0.000000
0.921875 0.043750 0.000000
0.921875 0.050000 0.000000
0.968750 0.043750 0.000000
0.953125 0.043750 0.000000
0.953125 0.050000 0.000000
1.000000 0.043750 0.000000
0.984375 0.043750 0.000000
0.984375 0.050000 0.000000
0.031250 0.056250 0.000000
0.015625 0.056250 0.000000
0.015625 0.062500 0.000000
0.000000 0.056250 0.000000
0.062500 0.056250 0.000000
0.046875 0.056250 0.000000
0.046875 0.062500 0.000000
0.093750 0.056250 0.000000
0.078125 0.056250 0.000000
0.078125 0.062500 0.000000
0.125000 0.056250 0.000000
0.109375 0.056250 0.000000
0.109375 0.062500 0.000000
0.156250 0.056250 0.000000
0.140625 0.056250 0.000000
0.140625 0.062500 0.000000
0.187500 0.056250 0.000000
0.171875 0.056250 0.000000
0.171875 0.062500 0.000000
0.218750 0.056250 0.000000
0.203125 0.056250 0.000000
0.203125 0.062500 0.000000
0.250000 0.056250 0.000000
0.234375 0.056250 0.000000
0.234375 0.062500 0.000000
0.281250 0.056250 0.000000
0.265625 0.056250 0.000000
0.265625 0.062500 0.000000
0.312500 0.056250 0.000000
0.296875 0.056250 0.000000
0.296875 0.062500 0.000000
0.343750 0.056250 0.000000
0.328125 0.056250 0.000000
0.328125 0.062500 0.000000
0.375000 0.056250 0.000000
0.359375 0.056250 0.000000
0.359375 0.062500 0.000000
0.406250 0.056250 0.000000
0.390625 0.056250 0.000000
0.390625 0.062500 0.000000
0.437500 0.056250 0.000000
0.421875 0.056250 0.000000
0.421875 0.062500 0.000000
0.468750 0.056250 0.000000
0.453125 0.056250 0.000000
0.453125 0.062500 0.000000
0.500000 0.056250 0.000000
0.484375 0.056250 0.000000
0.484375 0.062500 0.000000
0.531250 0.056250 0.000000
0.515625 0.056250 0.000000
0.515625 0.062500 0.000000
0.562500 0.056250 0.000000
0.546875 0.056250 0.000000
0.546875 0.062500 0.000000
0.593750 0.056250 0.000000
0.578125 0.056250 0.000000
0.578125 0.062500 0.000000
0.625000 0.056250 0.000000
0.609375 0.056250 0.000000
0.609375 0.062500 0.000000
0.656250 0.056250 0.000000
0.640625 0.056250 0.000000
0.640625 0.062500 0.000000
0.687500 0.056250 0.000000
0.671875 0.056250 0.000000
0.671875 0.062500 0.000000
0.718750 0.056250 0.000000
0.703125 0.056250 0.000000
0.703125 0.062500 0.000000
0.750000 0.056250 0.000000
0.734375 0.056250 0.000000
0.734375 0.062500 0.000000
0.781250 0.056250 0.000000
0.765625 0.056250 0.000000
0.765625 0.062500 0.000000
0.812500 0.056250 0.000000
0.796875 0.056250 0.000000
0.796875 0.062500 0.000000
0.843750 0.056250 0.000000
0.828125 0.056250 0.000000
0.828125 0.062500 0.000000
0.875000 0.056250 0.000000
0.859375 0.056250 0.000000
0.859375 0.062500 0.000000
0.906250 0.056250 0.000000
0.890625 0.056250 0.000000
0.890625 0.062500 0.000000
0.937500 0.056250 0.000000
0.921875 0.056250 0.000000
0.921875 0.062500 0.000000
0.968750 0.056250 0.000000
0.953125 0.056250 0.000000
0.953125 0.062500 0.000000
1.000000 0.056250 0.000000
0.984375 0.056250 0.000000
0.984375 0.062500 0.000000
0.031250 0.068750 0.000000
0.015625 0.068750 0.000000
0.015625 0.075000 0.000000
0.000000 0.068750 0.000000
0.062500 0.068750 0.000000
0.046875 0.068750 0.000000
0.046875 0.075000 0.000000
0.093750 0.068750 0.000000
0.078125 0.068750 0.000000
0.078125 0.075000 0.000000
0.125000 0.068750 0.000000
0.109375 0.068750 0.000000
0.109375 0.075000 0.000000
0.156250 0.068750 0.000000
0.140625 0.068750 0.000000
0.140625 0.075000 0.000000
0.187500 0.068750 0.000000
0.171875 0.068750 0.000000
0.171875 0.075000 0.000000
0.218750 0.068750 0.000000
0.203125 0.068750 0.000000
0.203125 0.075000 0.000000
0.250000 0.068750 0.000000
0.234375 0.068750 0.000000
0.234375 0.075000 0.000000
0.281250 0.068750 0.000000
0.265625 0.068750 0.000000
0.265625 0.075000 0.000000
0.312500 0.068750 0.000000
0.296875 0.068750 0.000000
0.296875 0.075000 0.000000
0.343750 0.068750 0.000000
0.328125 0.068750 0.000000
0.328125 0.075000 0.000000
0.375000 0.068750 0.000000
0.359375 0.068750 0.000000
0.359375 0.075000 0.000000
0.406250 0.068750 0.000000
0.390625 0.068750 0.000000
0.390625 0.075000 0.000000
0.437500 0.068750 0.000000
0.421875 0.068750 0.000000
0.421875 0.075000 0.000000
0.468750 0.068750 0.000000
0.453125 0.068750 0.000000
0.453125 0.075000 0.000000
0.500000 0.068750 0.000000
0.484375 0.068750 0.000000
0.484375 0.075000 0.000000
0.531250 0.068750 0.000000
0.515625 0.068750 0.000000
0.515625 0.075000 0.000000
0.562500 0.068750 0.000000
0.546875 0.068750 0.000000
0.546875 0.075000 0.000000
0.593750 0.068750 0.000000
0.578125 0.068750 0.000000
0.578125 0.075000 0.000000
0.625000 0.068750 0.000000
0.609375 0.068750 0.000000
0.609375 0.075000 0.000000
0.656250 0.068750 0.000000
0.640625 0.068750 0.000000
0.640625 0.075000 0.000000
0.687500 0.068750 0.000000
0.671875 0.068750 0.000000
0.671875 0.075000 0.000000
0.718750 0.068750 0.000000
0.703125 0.068750 0.000000
0.703125 0.075000 0.000000
0.750000 0.068750 0.000000
0.734375 0.068750 0.000000
0.734375 0.075000 0.000000
0.781250 0.068750 0.000000
0.765625 0.068750 0.000000
0.765625 0.075000 0.000000
0.812500 0.068750 0.000000
0.796875 0.068750 0.000000
0.796875 0.075000 0.000000
0.843750 0.068750 0.000000
0.828125 0.068750 0.000000
0.828125 0.075000 0.000000
0.875000 0.068750 0.000000
0.859375 0.068750 0.000000
0.859375 0.075000 0.000000
0.906250 0.068750 0.000000
0.890625 0.068750 0.000000
0.890625 0.075000 0.000000
0.937500 0.068750 0.000000
0.921875 0.068750 0.000000
0.921875 0.075000 0.000000
0.968750 0.068750 0.000000
0.953125 0.068750 0.000000
0.953125 0.075000 0.000000
1.000000 0.068750 0.000000
0.984375 0.068750 0.000000
0.984375 0.075000 0.000000
0.031250 0.081250 0.000000
0.015625 0.081250 0.000000
0.015625 0.087500 0.000000
0.000000 0.081250 0.000000
0.062500 0.081250 0.000000
0.046875 0.081250 0.000000
0.046875 0.087500 0.000000
0.093750 0.081250 0.000000
0.078125 0.081250 0.000000
0.078125 0.087500 0.000000
0.125000 0.081250 0.000000
0.109375 0.081250 0.000000
0.109375 0.087500 0.000000
0.156250 0.081250 0.000000
0.140625 0.081250 0.000000
0.140625 0.087500 0.000000
0.187500 0.081250 0.000000
0.171875 0.081250 0.000000
0.171875 0.087500 0.000000
0.218750 0.081250 0.000000
0.203125 0.081250 0.000000
0.203125 0.087500 0.000000
0.250000 0.081250 0.000000
0.234375 0.081250 0.000000
0.234375 0.087500 0.000000
0.281250 0.081250 0.000000
0.265625 0.081250 0.000000
0.265625 0.087500 0.000000
0.312500 0.081250 0.000000
0.296875 0.081250 0.000000
0.296875 0.087500 0.000000
0.343750 0.081250 0.000000
0.328125 0.081250 0.000000
0.328125 0.087500 0.000000
0.375000 0.081250 0.000000
0.359375 0.081250 0.000000
0.359375 0.087500 0.000000
0.406250 0.081250 0.000000
0.390625 0.081250 0.000000
0.390625 0.087500 0.000000
0.437500 0.081250 0.000000
0.421875 0.081250 0.000000
0.421875 0.087500 0.000000
0.468750 0.081250 0.000000
0.453125 0.081250 0.000000
0.453125 0.087500 0.000000
0.500000 0.081250 0.000000
0.484375 0.081250 0.000000
0.484375 0.087500 0.000000
0.531250 0.081250 0.000000
0.515625 0.081250 0.000000
0.515625 0.087500 0.000000
0.562500 0.081250 0.000000
0.546875 0.081250 0.000000
0.546875 0.087500 0.000000
0.593750 0.081250 0.000000
0.578125 0.081250 0.000000
0.578125 0.087500 0.000000
0.625000 0.081250 0.000000
0.609375 0.081250 0.000000
0.609375 0.087500 0.000000
0.656250 0.081250 0.000000
0.640625 0.081250 0.000000
0.640625 0.087500 0.000000
0.687500 0.081250 0.000000
0.671875 0.081250 0.000000
0.671875 0.087500 0.000000
0.718750 0.081250 0.000000
0.703125 0.081250 0.000000
0.703125 0.087500 0.000000
0.750000 0.081250 0.000000
0.734375 0.081250 0.000000
0.734375 0.087500 0.000000
0.781250 0.081250 0.000000
0.765625 0.081250 0.000000
0.765625 0.087500 0.000000
0.812500 0.081250 0.000000
0.796875 0.081250 0.000000
0.796875 0.087500 0.000000
0.843750 0.081250 0.000000
0.828125 0.081250 0.000000
0.828125 0.087500 0.000000
0.875000 0.081250 0.000000
0.859375 0.081250 0.000000
0.859375 0.087500 0.000000
0.906250 0.081250 0.000000
0.890625 0.081250 0.000000
0.890625 0.087500 0.000000
0.937500 0.081250 0.000000
0.921875 0.081250 0.000000
0.921875 0.087500 0.000000
0.968750 0.081250 0.000000
0.953125 0.081250 0.000000
0.953125 0.087500 0.000000
1.000000 0.081250 0.000000
0.984375 0.081250 0.000000
0.984375 0.087500 0.000000
0.031250 0.093750 0.000000
0.015625 0.093750 0.000000
0.015625 0.100000 0.000000
0.000000 0.093750 0.000000
0.062500 0.093750 0.000000
0.046875 0.093750 0.000000
0.046875 0.100000 0.000000
0.093750 0.093750 0.000000
0.078125 0.093750 0.000000
0.078125 0.100000 0.000000
0.125000 0.093750 0.000000
0.109375 0.093750 0.000000
0.109375 0.100000 0.000000
0.156250 0.093750 0.000000
0.140625 0.093750 0.000000
0.140625 0.100000 0.000000
0.187500 0.093750 0.000000
0.171875 0.093750 0.000000
0.171875 0.100000 0.000000
0.218750 0.093750 0.000000
0.203125 0.093750 0.000000
0.203125 0.100000 0.000000
0.250000 0.093750 0.000000
0.234375 0.093750 0.000000
0.234375 0.100000 0.000000
0.281250 0.093750 0.000000
0.265625 0.093750 0.000000
0.265625 0.100000 0.000000
0.312500 0.093750 0.000000
0.296875 0.093750 0.000000
0.296875 0.100000 0.000000
0.343750 0.093750 0.000000
0.328125 0.093750 0.000000
0.328125 0.100000 0.000000
0.375000 0.093750 0.000000
0.359375 0.093750 0.000000
0.359375 0.100000 0.000000
0.406250 0.093750 0.000000
0.390625 0.093750 0.000000
0.390625 0.100000 0.000000
0.437500 0.093750 0.000000
0.421875 0.093750 0.000000
0.421875 0.100000 0.000000
0.468750 0.093750 0.000000
0.453125 0.093750 0.000000
0.453125 0.100000 0.000000
0.500000 0.093750 0.000000
0.484375 0.093750 0.000000
0.484375 0.100000 0.000000
0.531250 0.093750 0.000000
0.515625 0.093750 0.000000
0.515625 0.100000 0.000000
0.562500 0.093750 0.000000
0.546875 0.093750 0.000000
0.546875 0.100000 0.000000
0.593750 0.093750 0.000000
0.578125 0.093750 0.000000
0.578125 0.100000 0.000000
0.625000 0.093750 0.000000
0.609375 0.093750 0.000000
0.609375 0.100000 0.000000
0.656250 0.093750 0.000000
0.640625 0.093750 0.000000
0.640625 0.100000 0.000000
0.687500 0.093750 0.000000
0.671875 0.093750 0.000000
0.671875 0.100000 0.000000
0.718750 0.093750 0.000000
0.703125 0.093750 0.000000
0.703125 0.100000 0.000000
0.750000 0.093750 0.000000
0.734375 0.093750 0.000000
0.734375 0.100000 0.000000
0.781250 0.093750 0.000000
0.765625 0.093750 0.000000
0.765625 0.100000 0.000000
0.812500 0.093750 0.000000
0.796875 0.093750 0.000000
0.796875 0.100000 0.000000
0.843750 0.093750 0.000000
0.828125 0.093750 0.000000
0.828125 0.100000 0.000000
0.875000 0.093750 0.000000
0.859375 0.093750 0.000000
0.859375 0.100000 0.000000
0.906250 0.093750 0.000000
0.890625 0.093750 0.000000
0.890625 0.100000 0.000000
0.937500 0.093750 0.000000
0.921875 0.093750 0.000000
0.921875 0.100000 0.000000
0.968750 0.093750 0.000000
0.953125 0.093750 0.000000
0.953125 0.100000 0.000000
1.000000 0.093750 0.000000
0.984375 0.093750 0.000000
0.984375 0.100000 0.000000

CELLS 512 3584
6 0 1 34 297 298 299
6 0 34 33 299 300 301
6 1 2 35 302 303 304
6 1 35 34 304 305 298
6 2 3 36 306 307 308
6 2 36 35 308 309 303
6 3 4 37 310 311 312
6 3 37 36 312 313 307
6 4 5 38 314 315 316
6 4 38 37 316 317 311
6 5 6 39 318 319 320
6 5 39 38 320 321 315
6 6 7 40 322 323 324
6 6 40 39 324 325 319
6 7 8 41 326 327 328
6 7 41 40 328 329 323
6 8 9 42 330 331 332
6 8 42 41 332 333 327
6 9 10 43 334 335 336
6 9 43 42 336 337 331
6 10 11 44 338 339 340
6 10 44 43 340 341 335
6 11 12 45 342 343 344
6 11 45 44 344 345 339
6 12 13 46 346 347 348
6 12 46 45 348 349 343
6 13 14 47 350 351 352
6 13 47 46 352 353 347
6 14 15 48 354 355 356
6 14 48 47 356 357 351
6 15 16 49 358 359 360
6 15 49 48 360 361 355
6 16 17 50 362 363 364
6 16 50 49 364 365 359
6 17 18 51 366 367 368
6 17 51 50 368 369 363
6 18 19 52 370 371 372
6 18 52 51 372 373 367
6 19 20 53 374 375 376
6 19 53 52 376 377 371
6 20 21 54 378 379 380
6 20 54 53 380 381 375
6 21 22 55 382 383 384
6 21 55 54 384 385 379
6 22 23 56 386 387 388
6 22 56 55 388 389 383
6 23 24 57 390 391 392
6 23 57 56 392 393 387
6 24 25 58 394 395 396
6 24 58 57 396 397 391
6 25 26 59 398 399 400
6 25 59 58 400 401 395
6 26 27 60 402 403 404
6 26 60 59 404 405 399
6 27 28 61 406 407 408
6 27 61 60 408 409 403
6 28 29 62 410 411 412
6 28 62 61 412 413 407
6 29 30 63 414 415 416
6 29 63 62 416 417 411
6 30 31 64 418 419 420
6 30 64 63 420 421 415
6 31 32 65 422 423 424
6 31 65 64 424 425 419
6 33 34 67 300 426 427
6 33 67 66 427 428 429
6 34 35 68 305 430 431
6 34 68 67 431 432 426
6 35 36 69 309 433 434
6 35 69 68 434 435 430
6 36 37 70 313 436 437
6 36 70 69 437 438 433
6 37 38 71 317 439 440
6 37 71 70 440 441 436
6 38 39 72 321 442 443
6 38 72 71 443 444 439
6 39 40 73 325 445 446
6 39 73 72 446 447 442
6 40 41 74 329 448 449
6 40 74 73 449 450 445
6 41 42 75 333 451 452
6 41 75 74 452 453 448
6 42 43 76 337 454 455
6 42 76 75 455 456 451
6 43 44 77 341 457 458
6 43 77 76 458 459 454
6 44 45 78 345 460 461
6 44 78 77 461 462 457
6 45 46 79 349 463 464
6 45 79 78 464 465 460
6 46 47 80 353 466 467
6 46 80 79 467 468 463
6 47 48 81 357 469 470
6 47 81 80 470 471 466
6 48 49 82 361 472 473
6 48 82 81 473 474 469
6 49 50 83 365 475 476
6 49 83 82 476 477 472
6 50 51 84 369 478 479
6 50 84 83 479 480 475
6 51 52 85 373 481 482
6 51 85 84 482 483 478
6 52 53 86 377 484 485
6 52 86 85 485 486 481
6 53 54 87 381 487 488
6 53 87 86 488 489 484
6 54 55 88 385 490 491
6 54 88 87 491 492 487
6 55 56 89 389 493 494
6 55 89 88 494 495 490
6 56 57 90 393 496 497
6 56 90 89 497 498 493
6 57 58 91 397 499 500
6 57 91 90 500 501 496
6 58 59 92 401 502 503
6 58 92 91 503 504 499
6 59 60 93 405 505 506
6 59 93 92 506 507 502
6 60 61 94 409 508 509
6 60 94 93 509 510 505
6 61 62 95 413 511 512
6 61 95 94 512 513 508
6 62 63 96 417 514 515
6 62 96 95 515 516 511
6 63 64 97 421 517 518
6 63 97 96 518 519 514
6 64 65 98 425 520 521
6 64 98 97 521 522 517
6 66 67 100 428 523 524
6 66 100 99 524 525 526
6 67 68 101 432 527 528
6 67 101 100 528 529 523
6 68 69 102 435 530 531
6 68 102 101 531 532 527
6 69 70 103 438 533 534
6 69 103 102 534 535 530
6 70 71 104 441 536 537
6 70 104 103 537 538 533
6 71 72 105 444 539 540
6 71 105 104 540 541 536
6 72 73 106 447 542 543
6 72 106 105 543 544 539
6 73 74 107 450 545 546
6 73 107 106 546 547 542
6 74 75 108 453 548 549
6 74 108 107 549 550 545
6 75 76 109 456 551 552
6 75 109 108 552 553 548
6 76 77 110 459 554 555
6 76 110 109 555 556 551
6 77 78 111 462 557 558
6 77 111 110 558 559 554
6 78 79 112 465 560 561
6 78 112 111 561 562 557
6 79 80 113 468 563 564
6 79 113 112 564 565 560
6 80 81 114 471 566 567
6 80 114 113 567 568 563
6 81 82 115 474 569 570
6 81 115 114 570 571 566
6 82 83 116 477 572 573
6 82 116 115 573 574 569
6 83 84 117 480 575 576
6 83 117 116 576 577 572
6 84 85 118 483 578 579
6 84 118 117 579 580 575
6 85 86 119 486 581 582
6 85 119 118 582 583 578
6 86 87 120 489 584 585
6 86 120 119 585 586 581
6 87 88 121 492 587 588
6 87 121 120 588 589 584
6 88 89 122 495 590 591
6 88 122 121 591 592 587
6 89 90 123 498 593 594
6 89 123 122 594 595 590
6 90 91 124 501 596 597
6 90 124 123 597 598 593
6 91 92 125 504 599 600
6 91 125 124 600 601 596
6 92 93 126 507 602 603
6 92 126 125 603 604 599
6 93 94 127 510 605 606
6 93 127 126 606 607 602
6 94 95 128 513 608 609
6 94 128 127 609 610 605
6 95 96 129 516 611 612
6 95 129 128 612 613 608
6 96 97 130 519 614 615
6 96 130 129 615 616 611
6 97 98 131 522 617 618
6 97 131 130 618 619 614
6 99 100 133 525 620 621
6 99 133 132 621 622 623
6 100 101 134 529 624 625
6 100 134 133 625 626 620
6 101 102 135 532 627 628
6 101 135 134 628 629 624
6 102 103 136 535 630 631
6 102 136 135 631 632 627
6 103 104 137 538 633 634
6 103 137 136 634 635 630
6 104 105 138 541 636 637
6 104 138 137 637 638 633
6 105 106 139 544 639 640
6 105 139 138 640 641 636
6 106 107 140 547 642 643
6 106 140 139 643 644 639
6 107 108 141 550 645 646
6 107 141 140 646 647 642
6 108 109 142 553 648 649
6 108 142 141 649 650 645
6 109 110 143 556 651 652
6 109 143 142 652 653 648
6 110 111 144 559 654 655
6 110 144 143 655 656 651
6 111 112 145 562 657 658
6 111 145 144 658 659 654
6 112 113 146 565 660 661
6 112 146 145 661 662 657
6 113 114 147 568 663 664
6 113 147 146 664 665 660
6 114 115 148 571 666 667
6 114 148 147 667 668 663
6 115 116 149 574 669 670
6 115 149 148 670 671 666
6 116 117 150 577 672 673
6 116 150 149 673 674 669
6 117 118 151 580 675 676
6 117 151 150 676 677 672
6 118 119 152 583 678 679
6 118 152 151 679 680 675
6 119 120 153 586 681 682
6 119 153 152 682 683 678
6 120 121 154 589 684 685
6 120 154 153 685 686 681
6 121 122 155 592 687 688
6 121 155 154 688 689 684
6 122 123 156 595 690 691
6 122 156 155 691 692 687
6 123 124 157 598 693 694
6 123 157 156 694 695 690
6 124 125 158 601 696 697
6 124 158 157 697 698 693
6 125 126 159 604 699 700
6 125 159 158 700 701 696
6 126 127 160 607 702 703
6 126 160 159 703 704 699
6 127 128 161 610 705 706
6 127 161 160 706 707 702
6 128 129 162 613 708 709
6 128 162 161 709 710 705
6 129 130 163 616 711 712
6 129 163 162 712 713 708
6 130 131 164 619 714 715
6 130 164 163 715 716 711
6 132 133 166 622 717 718
6 132 166 165 718 719 720
6 133 134 167 626 721 722
6 133 167 166 722 723 717
6 134 135 168 629 724 725
6 134 168 167 725 726 721
6 135 136 169 632 727 728
6 135 169 168 728 729 724
6 136 137 170 635 730 731
6 136 170 169 731 732 727
6 137 138 171 638 733 734
6 137 171 170 734 735 730
6 138 139 172 641 736 737
6 138 172 171 737 738 733
6 139 140 173 644 739 740
6 139 173 172 740 741 736
6 140 141 174 647 742 743
6 140 174 173 743 744 739
6 141 142 175 650 745 746
6 141 175 174 746 747 742
6 142 143 176 653 748 749
6 142 176 175 749 750 745
6 143 144 177 656 751 752
6 143 177 176 752 753 748
6 144 145 178 659 754 755
6 144 178 177 755 756 751
6 145 146 179 662 757 758
6 145 179 178 758 759 754
6 146 147 180 665 760 761
6 146 180 179 761 762 757
6 147 148 181 668 763 764
6 147 181 180 764 765 760
6 148 149 182 671 766 767
6 148 182 181 767 768 763
6 149 150 183 674 769 770
6 149 183 182 770 771 766
6 150 151 184 677 772 773
6 150 184 183 773 774 769
6 151 152 185 680 775 776
6 151 185 184 776 777 772
6 152 153 186 683 778 779
6 152 186 185 779 780 775
6 153 154 187 686 781 782
6 153 187 186 782 783 778
6 154 155 188 689 784 785
6 154 188 187 785 786 781
6 155 156 189 692 787 788
6 155 189 188 788 789 784
6 156 157 190 695 790 791
6 156 190 189 791 792 787
6 157 158 191 698 793 794
6 157 191 190 794 795 790
6 158 159 192 701 796 797
6 158 192 191 797 798 793
6 159 160 193 704 799 800
6 159 193 192 800 801 796
6 160 161 194 707 802 803
6 160 194 193 803 804 799
6 161 162 195 710 805 806
6 161 195 194 806 807 802
6 162 163 196 713 808 809
6 162 196 195 809 810 805
6 163 164 197 716 811 812
6 163 197 196 812 813 808
6 165 166 199 719 814 815
6 165 199 198 815 816 817
6 166 167 200 723 818 819
6 166 200 199 819 820 814
6 167 168 201 726 821 822
6 167 201 200 822 823 818
6 168 169 202 729 824 825
6 168 202 201 825 826 821
6 169 170 203 732 827 828
6 169 203 202 828 829 824
6 170 171 204 735 830 831
6 170 204 203 831 832 827
6 171 172 205 738 833 834
6 171 205 204 834 835 830
6 172 173 206 741 836 837
6 172 206 205 837 838 833
6 173 174 207 744 839 840
6 173 207 206 840 841 836
6 174 175 208 747 842 843
6 174 208 207 843 844 839
6 175 176 209 750 845 846
6 175 209 208 846 847 842
6 176 177 210 753 848 849
6 176 210 209 849 850 845
6 177 178 211 756 851 852
6 177 211 210 852 853 848
6 178 179 212 759 854 855
6 178 212 211 855 856 851
6 179 180 213 762 857 858
6 179 213 212 858 859 854
6 180 181 214 765 860 861
6 180 214 213 861 862 857
6 181 182 215 768 863 864
6 181 215 214 864 865 860
6 182 183 216 771 866 867
6 182 216 215 867 868 863
6 183 184 217 774 869 870
6 183 217 216 870 871 866
6 184 185 218 777 872 873
6 184 218 217 873 874 869
6 185 186 219 780 875 876
6 185 219 218 876 877 872
6 186 187 220 783 878 879
6 186 220 219 879 880 875
6 187 188 221 786 881 882
6 187 221 220 882 883 878
6 188 189 222 789 884 885
6 188 222 221 885 886 881
6 189 190 223 792 887 888
6 189 223 222 888 889 884
6 190 191 224 795 890 891
6 190 224 223 891 892 887
6 191 192 225 798 893 894
6 191 225 224 894 895 890
6 192 193 226 801 896 897
6 192 226 225 897 898 893
6 193 194 227 804 899 900
6 193 227 226 900 901 896
6 194 195 228 807 902 903
6 194 228 227 903 904 899
6 195 196 229 810 905 906
6 195 229 228 906 907 902
6 196 197 230 813 908 909
6 196 230 229 909 910 905
6 198 199 232 816 911 912
6 198 232 231 912 913 914
6 199 200 233 820 915 916
6 199 233 232 916 917 911
6 200 201 234 823 918 919
6 200 234 233 919 920 915
6 201 202 235 826 921 922
6 201 235 234 922 923 918
6 202 203 236 829 924 925
6 202 236 235 925 926 921
6 203 204 237 832 927 928
6 203 237 236 928 929 924
6 204 205 238 835 930 931
6 204 238 237 931 932 927
6 205 206 239 838 933 934
6 205 239 238 934 935 930
6 206 207 240 841 936 937
6 206 240 239 937 938 933
6 207 208 241 844 939 940
6 207 241 240 940 941 936
6 208 209 242 847 942 943
6 208 242 241 943 944 939
6 209 210 243 850 945 946
6 209 243 242 946 947 942
6 210 211 244 853 948 949
6 210 244 243 949 950 945
6 211 212 245 856 951 952
6 211 245 244 952 953 948
6 212 213 246 859 954 955
6 212 246 245 955 956 951
6 213 214 247 862 957 958
6 213 247 246 958 959 954
6 214 215 248 865 960 961
6 214 248 247 961 962 957
6 215 216 249 868 963 964
6 215 249 248 964 965 960
6 216 217 250 871 966 967
6 216 250 249 967 968 963
6 217 218 251 874 969 970
6 217 251 250 970 971 966
6 218 219 252 877 972 973
6 218 252 251 973 974 969
6 219 220 253 880 975 976
6 219 253 252 976 977 972
6 220 221 254 883 978 979
6 220 254 253 979 980 975
6 221 222 255 886 981 982
6 221 255 254 982 983 978
6 222 223 256 889 984 985
6 222 256 255 985 986 981
6 223 224 257 892 987 988
6 223 257 256 988 989 984
6 224 225 258 895 990 991
6 224 258 257 991 992 987
6 225 226 259 898 993 994
6 225 259 258 994 995 990
6 226 227 260 901 996 997
6 226 260 259 997 998 993
6 227 228 261 904 999 1000
6 227 261 260 1000 1001 996
6 228 229 262 907 1002 1003
6 228 262 261 1003 1004 999
6 229 230 263 910 1005 1006
6 229 263 262 1006 1007 1002
6 231 232 265 913 1008 1009
6 231 265 264 1009 1010 1011
6 232 233 266 917 1012 1013
6 232 266 265 1013 1014 1008
6 233 234 267 920 1015 1016
6 233 267 266 1016 1017 1012
6 234 235 268 923 1018 1019
6 234 268 267 1019 1020 1015
6 235 236 269 926 1021 1022
6 235 269 268 1022 1023 1018
6 236 237 270 929 1024 1025
6 236 270 269 1025 1026 1021
6 237 238 271 932 1027 1028
6 237 271 270 1028 1029 1024
6 238 239 272 935 1030 1031
6 238 272 271 1031 1032 1027
6 239 240 273 938 1033 1034
6 239 273 272 1034 1035 1030
6 240 241 274 941 1036 1037
6 240 274 273 1037 1038 1033
6 241 242 275 944 1039 1040
6 241 275 274 1040 1041 1036
6 242 243 276 947 1042 1043
6 242 276 275 1043 1044 1039
6 243 244 277 950 1045 1046
6 243 277 276 1046 1047 1042
6 244 245 278 953 1048 1049
6 244 278 277 1049 1050 1045
6 245 246 279 956 1051 1052
6 245 279 278 1052 1053 1048
6 246 247 280 959 1054 1055
6 246 280 279 1055 1056 1051
6 247 248 281 962 1057 1058
6 247 281 280 1058 1059 1054
6 248 249 282 965 1060 1061
6 248 282 281 1061 1062 1057
6 249 250 283 968 1063 1064
6 249 283 282 1064 1065 1060
6 250 251 284 971 1066 1067
6 250 284 283 1067 1068 1063
6 251 252 285 974 1069 1070
6 251 285 284 1070 1071 1066
6 252 253 286 977 1072 1073
6 252 286 285 1073 1074 1069
6 253 254 287 980 1075 1076
6 253 287 286 1076 1077 1072
6 254 255 288 983 1078 1079
6 254 288 287 1079 1080 1075
6 255 256 289 986 1081 1082
6 255 289 288 1082 1083 1078
6 256 257 290 989 1084 1085
6 256 290 289 1085 1086 1081
6 257 258 291 992 1087 1088
6 257 291 290 1088 1089 1084
6 258 259 292 995 1090 1091
6 258 292 291 1091 1092 1087
6 259 260 293 998 1093 1094
6 259 293 292 1094 1095 1090
6 260 261 294 1001 1096 1097
6 260 294 293 1097 1098 1093
6 261 262 295 1004 1099 1100
6 261 295 294 1100 1101 1096
6 262 263 296 1007 1102 1103
6 262 296 295 1103 1104 1099

CELL_TYPES 512
22
22
22
22
22
22
22
22
22
22
22
22
22
22
22
22
22
22
22
22
22
22
22
22
22
22
22
22
22
22
22
22
22
22
22
22
22
22
22
22
22
22
22
22
22
22
22
22
22
22
22
22
22
22
22
22
22
22
22
22
22
22
22
22
22
22
22
22
22
22
22
22
22
22
22
22
22
22
22
22
22
22
22
22
22
22
22
22
22
22
22
22
22
22
22
22
22
22
22
22
22
22
22
22
22
22
22
22
22
22
22
22
22
22
22
22
22
22
22
22
22
22
22
22
22
22
22
22
22
22
22
22
22
22
22
22
22
22
22
22
22
22
22
22
22
22
22
22
22
22
22
22
22
22
22
22
22
22
22
22
22
22
22
22
22
22
22
22
22
22
22
22
22
22
22
22
22
22
22
22
22
22
22
22
22
22
22
22
22
22
22
22
22
22
22
22
22
22
22
22
22
22
22
22
22
22
22
22
22
22
22
22
22
22
22
22
22
22
22
22
22
22
22
22
22
22
22
22
22
22
22
22
22
22
22
22
22
22
22
22
22
22
22
22
22
22
22
22
22
22
22
22
22
22
22
22
22
22
22
22
22
22
22
22
22
22
22
22
22
22
22
22
22
22
22
22
22
22
22
22
22
22
22
22
22
22
22
22
22
22
22
22
22
22
22
22
22
22
22
22
22
22
22
22
22
22
22
22
22
22
22
22
22
22
22
22
22
22
22
22
22
22
22
22
22
22
22
22
22
22
22
22
22
22
22
22
22
22
22
22
22
22
22
22
22
22
22
22
22
22
22
22
22
22
22
22
22
22
22
22
22
22
22
22
22
22
22
22
22
22
22
22
22
22
22
22
22
22
22
22
22
22
22
22
22
22
22
22
22
22
22
22
22
22
22
22
22
22
22
22
22
22
22
22
22
22
22
22
22
22
22
22
22
22
22
22
22
22
22
22
22
22
22
22
22
22
22
22
22
22
22
22
22
22
22
22
22
22
22
22
22
22
22
22
22
22
22
22
22
22
22
22
22
22
22
22
22
22
22
22
22
22
22
22
22
22
22
22
22
22
22
22
22
22
22
22
22
22
22
22
22
22
22
22
22
22
22
22
22
22
22
22
22
22
22
22
22
22
22
22
22
22
22
22
22
22
22
22
22
22
22
22

POINT_DATA 1105
VECTORS Displacement float
0.000000e+00 0.000000e+00 0.000000e+00
-8.747565e-08 -4.586064e-08 0.000000e+00
-1.719574e-07 -1.303722e-07 0.000000e+00
-2.542576e-07 -2.670223e-07 0.000000e+00
-3.337850e-07 -4.543097e-07 0.000000e+00
-4.105163e-07 -6.904317e-07 0.000000e+00
-4.844559e-07 -9.736370e-07 0.000000e+00
-5.556054e-07 -1.302182e-06 0.000000e+00
-6.239647e-07 -1.674324e-06 0.000000e+00
-6.895339e-07 -2.088318e-06 0.000000e+00
-7.523129e-07 -2.542421e-06 0.000000e+00
-8.123017e-07 -3.034889e-06 0.000000e+00
-8.695004e-07 -3.563979e-06 0.000000e+00
-9.239089e-07 -4.127945e-06 0.000000e+00
-9.755272e-07 -4.725045e-06 0.000000e+00
-1.024355e-06 -5.353534e-06 0.000000e+00
-1.070393e-06 -6.011669e-06 0.000000e+00
-1.113641e-06 -6.697706e-06 0.000000e+00
-1.154099e-06 -7.409901e-06 0.000000e+00
-1.191766e-06 -8.146509e-06 0.000000e+00
-1.226643e-06 -8.905788e-06 0.000000e+00
-1.258730e-06 -9.685993e-06 0.000000e+00
-1.288027e-06 -1.048538e-05 0.000000e+00
-1.314534e-06 -1.130221e-05 0.000000e+00
-1.338250e-06 -1.213473e-05 0.000000e+00
-1.359177e-06 -1.298120e-05 0.000000e+00
-1.377313e-06 -1.383988e-05 0.000000e+00
-1.392659e-06 -1.470902e-05 0.000000e+00
-1.405215e-06 -1.558688e-05 0.000000e+00
-1.414980e-06 -1.647172e-05 0.000000e+00
-1.421960e-06 -1.736178e-05 0.000000e+00
-1.426274e-06 -1.825533e-05 0.000000e+00
-1.428251e-06 -1.915201e-05 0.000000e+00
0.000000e+00 0.000000e+00 0.000000e+00
-6.433544e-08 -3.690812e-08 0.000000e+00
-1.280701e-07 -1.215765e-07 0.000000e+00
-1.897969e-07 -2.585324e-07 0.000000e+00
-2.494404e-07 -4.461140e-07 0.000000e+00
-3.069886e-07 -6.825292e-07 0.000000e+00
-3.624434e-07 -9.660276e-07 0.000000e+00
-4.158055e-07 -1.294866e-06 0.000000e+00
-4.670751e-07 -1.667300e-06 0.000000e+00
-5.162520e-07 -2.081588e-06 0.000000e+00
-5.633362e-07 -2.535984e-06 0.000000e+00
-6.083278e-07 -3.028745e-06 0.000000e+00
-6.512268e-07 -3.558127e-06 0.000000e+00
-6.920332e-07 -4.122386e-06 0.000000e+00
-7.307469e-07 -4.719779e-06 0.000000e+00
-7.673680e-07 -5.348561e-06 0.000000e+00
-8.018965e-07 -6.006989e-06 0.000000e+00
-8.343323e-07 -6.693319e-06 0.000000e+00
-8.646755e-07 -7.405807e-06 0.000000e+00
-8.929261e-07 -8.142708e-06 0.000000e+00
-9.190840e-07 -8.902280e-06 0.000000e+00
-9.431493e-07 -9.682779e-06 0.000000e+00
-9.651219e-07 -1.048246e-05 0.000000e+00
-9.850020e-07 -1.129958e-05 0.000000e+00
-1.002789e-06 -1.213239e-05 0.000000e+00
-1.018484e-06 -1.297916e-05 0.000000e+00
-1.032086e-06 -1.383813e-05 0.000000e+00
-1.043596e-06 -1.470756e-05 0.000000e+00
-1.053013e-06 -1.558572e-05 0.000000e+00
-1.060337e-06 -1.647085e-05 0.000000e+00
-1.065572e-06 -1.736120e-05 0.000000e+00
-1.068714e-06 -1.825505e-05 0.000000e+00
-1.069792e-06 -1.915156e-05 0.000000e+00
0.000000e+00 0.000000e+00 0.000000e+00
-4.191740e-08 -3.013624e-08 0.000000e+00
-8.490457e-08 -1.152529e-07 0.000000e+00
-1.261212e-07 -2.524635e-07 0.000000e+00
-1.658830e-07 -4.402595e-07 0.000000e+00
-2.042475e-07 -6.768839e-07 0.000000e+00
-2.412173e-07 -9.605914e-07 0.000000e+00
-2.767921e-07 -1.289639e-06 0.000000e+00
-3.109717e-07 -1.662283e-06 0.000000e+00
-3.437563e-07 -2.076779e-06 0.000000e+00
-3.751459e-07 -2.531385e-06 0.000000e+00
-4.051403e-07 -3.024355e-06 0.000000e+00
-4.337396e-07 -3.553946e-06 0.000000e+00
-4.609438e-07 -4.118415e-06 0.000000e+00
-4.867530e-07 -4.716017e-06 0.000000e+00
-5.111671e-07 -5.345009e-06 0.000000e+00
-5.341860e-07 -6.003646e-06 0.000000e+00
-5.558099e-07 -6.690185e-06 0.000000e+00
-5.760387e-07 -7.402882e-06 0.000000e+00
-5.948724e-07 -8.139993e-06 0.000000e+00
-6.123110e-07 -8.899774e-06 0.000000e+00
-6.283546e-07 -9.680481e-06 0.000000e+00
-6.430030e-07 -1.048037e-05 0.000000e+00
-6.562563e-07 -1.129770e-05 0.000000e+00
-6.681146e-07 -1.213072e-05 0.000000e+00
-6.785778e-07 -1.297770e-05 0.000000e+00
-6.876459e-07 -1.383688e-05 0.000000e+00
-6.953189e-07 -1.470652e-05 0.000000e+00
-7.015968e-07 -1.558489e-05 0.000000e+00
-7.064794e-07 -1.647023e-05 0.000000e+00
-7.099582e-07 -1.736079e-05 0.000000e+00
-7.119554e-07 -1.825489e-05 0.000000e+00
-7.125901e-07 -1.915085e-05 0.000000e+00
0.000000e+00 0.000000e+00 0.000000e+00
-2.072201e-08 -2.625981e-08 0.000000e+00
-4.232571e-08 -1.114246e-07 0.000000e+00
-6.296049e-08 -2.488189e-07 0.000000e+00
-8.283907e-08 -4.367463e-07 0.000000e+00
-1.020201e-07 -6.734956e-07 0.000000e+00
-1.205048e-07 -9.573284e-07 0.000000e+00
-1.382923e-07 -1.286501e-06 0.000000e+00
-1.553821e-07 -1.659271e-06 0.000000e+00
-1.717744e-07 -2.073893e-06 0.000000e+00
-1.874692e-07 -2.528624e-06 0.000000e+00
-2.024664e-07 -3.021720e-06 0.000000e+00
-2.167661e-07 -3.551437e-06 0.000000e+00
-2.303682e-07 -4.116031e-06 0.000000e+00
-2.432728e-07 -4.713759e-06 0.000000e+00
-2.554798e-07 -5.342876e-06 0.000000e+00
-2.669893e-07 -6.001638e-06 0.000000e+00
-2.778012e-07 -6.688303e-06 0.000000e+00
-2.879156e-07 -7.401125e-06 0.000000e+00
-2.973325e-07 -8.138362e-06 0.000000e+00
-3.060518e-07 -8.898269e-06 0.000000e+00
-3.140735e-07 -9.679102e-06 0.000000e+00
-3.213978e-07 -1.047912e-05 0.000000e+00
-3.280244e-07 -1.129657e-05 0.000000e+00
-3.339536e-07 -1.212972e-05 0.000000e+00
-3.391852e-07 -1.297682e-05 0.000000e+00
-3.437192e-07 -1.383613e-05 0.000000e+00
-3.475557e-07 -1.470590e-05 0.000000e+00
-3.506946e-07 -1.558439e-05 0.000000e+00
-3.531354e-07 -1.646985e-05 0.000000e+00
-3.548680e-07 -1.736056e-05 0.000000e+00
-3.558333e-07 -1.825481e-05 0.000000e+00
-3.561375e-07 -1.915029e-05 0.000000e+00
0.000000e+00 0.000000e+00 0.000000e+00
-3.685684e-11 -2.498338e-08 0.000000e+00
-7.095236e-11 -1.101277e-07 0.000000e+00
-5.826439e-11 -2.476065e-07 0.000000e+00
-5.119054e-11 -4.355765e-07 0.000000e+00
-4.948819e-11 -6.723666e-07 0.000000e+00
-4.928354e-11 -9.562409e-07 0.000000e+00
-4.932511e-11 -1.285456e-06 0.000000e+00
-4.935690e-11 -1.658267e-06 0.000000e+00
-4.936681e-11 -2.072931e-06 0.000000e+00
-4.936855e-11 -2.527704e-06 0.000000e+00
-4.936854e-11 -3.020841e-06 0.000000e+00
-4.936842e-11 -3.550600e-06 0.000000e+00
-4.936836e-11 -4.115236e-06 0.000000e+00
-4.936835e-11 -4.713006e-06 0.000000e+00
-4.936835e-11 -5.342165e-06 0.000000e+00
-4.936835e-11 -6.000969e-06 0.000000e+00
-4.936835e-11 -6.687676e-06 0.000000e+00
-4.936835e-11 -7.400540e-06 0.000000e+00
-4.936835e-11 -8.137818e-06 0.000000e+00
-4.936835e-11 -8.897767e-06 0.000000e+00
-4.936834e-11 -9.678642e-06 0.000000e+00
-4.936834e-11 -1.047870e-05 0.000000e+00
-4.936845e-11 -1.129620e-05 0.000000e+00
-4.936903e-11 -1.212939e-05 0.000000e+00
-4.937081e-11 -1.297653e-05 0.000000e+00
-4.937277e-11 -1.383588e-05 0.000000e+00
-4.935941e-11 -1.470569e-05 0.000000e+00
-4.926218e-11 -1.558422e-05 0.000000e+00
-4.888898e-11 -1.646973e-05 0.000000e+00
-4.798411e-11 -1.736048e-05 0.000000e+00
-4.877544e-11 -1.825477e-05 0.000000e+00
-5.068979e-11 -1.915009e-05 0.000000e+00
0.000000e+00 0.000000e+00 0.000000e+00
2.063790e-08 -2.615531e-08 0.000000e+00
4.218601e-08 -1.114068e-07 0.000000e+00
6.284827e-08 -2.488291e-07 0.000000e+00
8.273759e-08 -4.367506e-07 0.000000e+00
1.019212e-07 -6.734976e-07 0.000000e+00
1.204062e-07 -9.573298e-07 0.000000e+00
1.381936e-07 -1.286503e-06 0.000000e+00
1.552834e-07 -1.659272e-06 0.000000e+00
1.716757e-07 -2.073894e-06 0.000000e+00
1.873705e-07 -2.528625e-06 0.000000e+00
2.023677e-07 -3.021721e-06 0.000000e+00
2.166673e-07 -3.551438e-06 0.000000e+00
2.302694e-07 -4.116032e-06 0.000000e+00
2.431740e-07 -4.713760e-06 0.000000e+00
2.553811e-07 -5.342877e-06 0.000000e+00
2.668905e-07 -6.001640e-06 0.000000e+00
2.777025e-07 -6.688304e-06 0.000000e+00
2.878169e-07 -7.401127e-06 0.000000e+00
2.972337e-07 -8.138363e-06 0.000000e+00
3.059530e-07 -8.898270e-06 0.000000e+00
3.139748e-07 -9.679103e-06 0.000000e+00
3.212990e-07 -1.047912e-05 0.000000e+00
3.279257e-07 -1.129657e-05 0.000000e+00
3.338548e-07 -1.212972e-05 0.000000e+00
3.390864e-07 -1.297682e-05 0.000000e+00
3.436204e-07 -1.383613e-05 0.000000e+00
3.474570e-07 -1.470590e-05 0.000000e+00
3.505960e-07 -1.558439e-05 0.000000e+00
3.530374e-07 -1.646985e-05 0.000000e+00
3.547713e-07 -1.736056e-05 0.000000e+00
3.557366e-07 -1.825480e-05 0.000000e+00
3.560366e-07 -1.915030e-05 0.000000e+00
0.000000e+00 0.000000e+00 0.000000e+00
4.177287e-08 -2.985724e-08 0.000000e+00
8.479218e-08 -1.152533e-07 0.000000e+00
1.260204e-07 -2.524807e-07 0.000000e+00
1.657837e-07 -4.402688e-07 0.000000e+00
2.041487e-07 -6.768894e-07 0.000000e+00
2.411186e-07 -9.605958e-07 0.000000e+00
2.766933e-07 -1.289643e-06 0.000000e+00
3.108730e-07 -1.662287e-06 0.000000e+00
3.436576e-07 -2.076783e-06 0.000000e+00
3.750471e-07 -2.531389e-06 0.000000e+00
4.050415e-07 -3.024359e-06 0.000000e+00
4.336409e-07 -3.553951e-06 0.000000e+00
4.608451e-07 -4.118419e-06 0.000000e+00
4.866543e-07 -4.716021e-06 0.000000e+00
5.110683e-07 -5.345013e-06 0.000000e+00
5.340873e-07 -6.003650e-06 0.000000e+00
5.557112e-07 -6.690189e-06 0.000000e+00
5.759400e-07 -7.402886e-06 0.000000e+00
5.947737e-07 -8.139997e-06 0.000000e+00
6.122123e-07 -8.899778e-06 0.000000e+00
6.282558e-07 -9.680486e-06 0.000000e+00
6.429043e-07 -1.048038e-05 0.000000e+00
6.561576e-07 -1.129770e-05 0.000000e+00
6.680159e-07 -1.213073e-05 0.000000e+00
6.784790e-07 -1.297770e-05 0.000000e+00
6.875471e-07 -1.383688e-05 0.000000e+00
6.952201e-07 -1.470653e-05 0.000000e+00
7.014981e-07 -1.558489e-05 0.000000e+00
7.063808e-07 -1.647023e-05 0.000000e+00
7.098594e-07 -1.736080e-05 0.000000e+00
7.118612e-07 -1.825488e-05 0.000000e+00
7.124899e-07 -1.915087e-05 0.000000e+00
0.000000e+00 0.000000e+00 0.000000e+00
6.397821e-08 -3.634291e-08 0.000000e+00
1.280141e-07 -1.216005e-07 0.000000e+00
1.897070e-07 -2.585552e-07 0.000000e+00
2.493432e-07 -4.461331e-07 0.000000e+00
3.068898e-07 -6.825442e-07 0.000000e+00
3.623446e-07 -9.660413e-07 0.000000e+00
4.157068e-07 -1.294879e-06 0.000000e+00
4.669763e-07 -1.667314e-06 0.000000e+00
5.161532e-07 -2.081601e-06 0.000000e+00
5.632375e-07 -2.535997e-06 0.000000e+00
6.082291e-07 -3.028758e-06 0.000000e+00
6.511281e-07 -3.558141e-06 0.000000e+00
6.919345e-07 -4.122400e-06 0.000000e+00
7.306482e-07 -4.719793e-06 0.000000e+00
7.672693e-07 -5.348575e-06 0.000000e+00
8.017977e-07 -6.007003e-06 0.000000e+00
8.342336e-07 -6.693333e-06 0.000000e+00
8.645768e-07 -7.405820e-06 0.000000e+00
8.928273e-07 -8.142722e-06 0.000000e+00
9.189852e-07 -8.902294e-06 0.000000e+00
9.430505e-07 -9.682792e-06 0.000000e+00
9.650232e-07 -1.048247e-05 0.000000e+00
9.849032e-07 -1.129959e-05 0.000000e+00
1.002691e-06 -1.213241e-05 0.000000e+00
1.018385e-06 -1.297917e-05 0.000000e+00
1.031987e-06 -1.383814e-05 0.000000e+00
1.043497e-06 -1.470758e-05 0.000000e+00
1.052914e-06 -1.558573e-05 0.000000e+00
1.060238e-06 -1.647086e-05 0.000000e+00
1.065471e-06 -1.736121e-05 0.000000e+00
1.068616e-06 -1.825505e-05 0.000000e+00
1.069689e-06 -1.915162e-05 0.000000e+00
0.000000e+00 0.000000e+00 0.000000e+00
8.798067e-08 -4.570740e-08 0.000000e+00
1.719148e-07 -1.303629e-07 0.000000e+00
2.541744e-07 -2.670574e-07 0.000000e+00
3.336874e-07 -4.543438e-07 0.000000e+00
4.104169e-07 -6.904621e-07 0.000000e+00
4.843568e-07 -9.736662e-07 0.000000e+00
5.555065e-07 -1.302211e-06 0.000000e+00
6.238659e-07 -1.674353e-06 0.000000e+00
6.894351e-07 -2.088347e-06 0.000000e+00
7.522142e-07 -2.542450e-06 0.000000e+00
8.122030e-07 -3.034918e-06 0.000000e+00
8.694017e-07 -3.564008e-06 0.000000e+00
9.238101e-07 -4.127974e-06 0.000000e+00
9.754284e-07 -4.725074e-06 0.000000e+00
1.024257e-06 -5.353563e-06 0.000000e+00
1.070295e-06 -6.011698e-06 0.000000e+00
1.113542e-06 -6.697735e-06 0.000000e+00
1.154000e-06 -7.409929e-06 0.000000e+00
1.191667e-06 -8.146538e-06 0.000000e+00
1.226545e-06 -8.905817e-06 0.000000e+00
1.258632e-06 -9.686022e-06 0.000000e+00
1.287928e-06 -1.048541e-05 0.000000e+00
1.314435e-06 -1.130224e-05 0.000000e+00
1.338152e-06 -1.213476e-05 0.000000e+00
1.359078e-06 -1.298123e-05 0.000000e+00
1.377214e-06 -1.383991e-05 0.000000e+00
1.392560e-06 -1.470905e-05 0.000000e+00
1.405116e-06 -1.558691e-05 0.000000e+00
1.414881e-06 -1.647175e-05 0.000000e+00
1.421859e-06 -1.736180e-05 0.000000e+00
1.426155e-06 -1.825535e-05 0.000000e+00
1.428187e-06 -1.915209e-05 0.000000e+00
-4.586438e-08 -2.097369e-08 0.000000e+00
-7.575506e-08 -4.111795e-08 0.000000e+00
-3.760282e-08 -1.606526e-08 0.000000e+00
-3.110331e-08 -1.236714e-08 0.000000e+00
0.000000e+00 0.000000e+00 0.000000e+00
-1.299061e-07 -8.155577e-08 0.000000e+00
-1.499116e-07 -1.256667e-07 0.000000e+00
-1.130707e-07 -7.679682e-08 0.000000e+00
-9.643373e-08 -7.264069e-08 0.000000e+00
-2.134193e-07 -1.922708e-07 0.000000e+00
-2.219124e-07 -2.624739e-07 0.000000e+00
-1.862011e-07 -1.876395e-07 0.000000e+00
-1.591921e-07 -1.836241e-07 0.000000e+00
-2.943441e-07 -3.544733e-07 0.000000e+00
-2.914969e-07 -4.499188e-07 0.000000e+00
-2.570027e-07 -3.499979e-07 0.000000e+00
-2.198794e-07 -3.461192e-07 0.000000e+00
-3.724732e-07 -5.663979e-07 0.000000e+00
-3.586368e-07 -6.861980e-07 0.000000e+00
-3.253650e-07 -5.620799e-07 0.000000e+00
-2.784749e-07 -5.583373e-07 0.000000e+00
-4.478084e-07 -8.262796e-07 0.000000e+00
-4.233340e-07 -9.695603e-07 0.000000e+00
-3.912833e-07 -8.221186e-07 0.000000e+00
-3.349762e-07 -8.185121e-07 0.000000e+00
-5.203529e-07 -1.132373e-06 0.000000e+00
-4.855898e-07 -1.298262e-06 0.000000e+00
-4.547598e-07 -1.128369e-06 0.000000e+00
-3.893847e-07 -1.124898e-06 0.000000e+00
-5.901072e-07 -1.482934e-06 0.000000e+00
-5.454042e-07 -1.670561e-06 0.000000e+00
-5.157949e-07 -1.479087e-06 0.000000e+00
-4.417005e-07 -1.475753e-06 0.000000e+00
-6.570715e-07 -1.876220e-06 0.000000e+00
-6.027773e-07 -2.084712e-06 0.000000e+00
-5.743886e-07 -1.872530e-06 0.000000e+00
-4.919237e-07 -1.869332e-06 0.000000e+00
-7.212456e-07 -2.310487e-06 0.000000e+00
-6.577089e-07 -2.538972e-06 0.000000e+00
-6.305410e-07 -2.306954e-06 0.000000e+00
-5.400543e-07 -2.303891e-06 0.000000e+00
-7.826295e-07 -2.783990e-06 0.000000e+00
-7.101992e-07 -3.031597e-06 0.000000e+00
-6.842519e-07 -2.780614e-06 0.000000e+00
-5.860922e-07 -2.777688e-06 0.000000e+00
-8.412233e-07 -3.294987e-06 0.000000e+00
-7.602480e-07 -3.560844e-06 0.000000e+00
-7.355214e-07 -3.291768e-06 0.000000e+00
-6.300376e-07 -3.288977e-06 0.000000e+00
-8.970269e-07 -3.841733e-06 0.000000e+00
-8.078554e-07 -4.124967e-06 0.000000e+00
-7.843496e-07 -3.838670e-06 0.000000e+00
-6.718902e-07 -3.836016e-06 0.000000e+00
-9.500403e-07 -4.422484e-06 0.000000e+00
-8.530214e-07 -4.722224e-06 0.000000e+00
-8.307363e-07 -4.419579e-06 0.000000e+00
-7.116503e-07 -4.417060e-06 0.000000e+00
-1.000263e-06 -5.035497e-06 0.000000e+00
-8.957460e-07 -5.350870e-06 0.000000e+00
-8.746816e-07 -5.032748e-06 0.000000e+00
-7.493177e-07 -5.030366e-06 0.000000e+00
-1.047697e-06 -5.679027e-06 0.000000e+00
-9.360292e-07 -6.009162e-06 0.000000e+00
-9.161855e-07 -5.676435e-06 0.000000e+00
-7.848925e-07 -5.674189e-06 0.000000e+00
-1.092339e-06 -6.351330e-06 0.000000e+00
-9.738710e-07 -6.695356e-06 0.000000e+00
-9.552480e-07 -6.348896e-06 0.000000e+00
-8.183746e-07 -6.346786e-06 0.000000e+00
-1.134192e-06 -7.050664e-06 0.000000e+00
-1.009271e-06 -7.407707e-06 0.000000e+00
-9.918691e-07 -7.048386e-06 0.000000e+00
-8.497641e-07 -7.046412e-06 0.000000e+00
-1.173255e-06 -7.775284e-06 0.000000e+00
-1.042230e-06 -8.144473e-06 0.000000e+00
-1.026049e-06 -7.773163e-06 0.000000e+00
-8.790610e-07 -7.771325e-06 0.000000e+00
-1.209527e-06 -8.523446e-06 0.000000e+00
-1.072748e-06 -8.903909e-06 0.000000e+00
-1.057787e-06 -8.521482e-06 0.000000e+00
-9.062652e-07 -8.519780e-06 0.000000e+00
-1.243009e-06 -9.293406e-06 0.000000e+00
-1.100824e-06 -9.684271e-06 0.000000e+00
-1.087084e-06 -9.291599e-06 0.000000e+00
-9.313768e-07 -9.290033e-06 0.000000e+00
-1.273701e-06 -1.008342e-05 0.000000e+00
-1.126459e-06 -1.048382e-05 0.000000e+00
-1.113939e-06 -1.008177e-05 0.000000e+00
-9.543958e-07 -1.008034e-05 0.000000e+00
-1.301603e-06 -1.089175e-05 0.000000e+00
-1.149652e-06 -1.130080e-05 0.000000e+00
-1.138353e-06 -1.089025e-05 0.000000e+00
-9.753222e-07 -1.088896e-05 0.000000e+00
-1.326714e-06 -1.171664e-05 0.000000e+00
-1.170404e-06 -1.213348e-05 0.000000e+00
-1.160326e-06 -1.171530e-05 0.000000e+00
-9.941559e-07 -1.171414e-05 0.000000e+00
-1.349036e-06 -1.255635e-05 0.000000e+00
-1.188715e-06 -1.298011e-05 0.000000e+00
-1.179857e-06 -1.255517e-05 0.000000e+00
-1.010897e-06 -1.255415e-05 0.000000e+00
-1.368567e-06 -1.340914e-05 0.000000e+00
-1.204584e-06 -1.383894e-05 0.000000e+00
-1.196947e-06 -1.340812e-05 0.000000e+00
-1.025545e-06 -1.340724e-05 0.000000e+00
-1.385308e-06 -1.427327e-05 0.000000e+00
-1.218012e-06 -1.470824e-05 0.000000e+00
-1.211596e-06 -1.427241e-05 0.000000e+00
-1.038101e-06 -1.427166e-05 0.000000e+00
-1.399259e-06 -1.514699e-05 0.000000e+00
-1.228998e-06 -1.558626e-05 0.000000e+00
-1.223803e-06 -1.514629e-05 0.000000e+00
-1.048564e-06 -1.514567e-05 0.000000e+00
-1.410420e-06 -1.602856e-05 0.000000e+00
-1.237543e-06 -1.647125e-05 0.000000e+00
-1.233568e-06 -1.602801e-05 0.000000e+00
-1.056935e-06 -1.602753e-05 0.000000e+00
-1.418791e-06 -1.691623e-05 0.000000e+00
-1.243654e-06 -1.736147e-05 0.000000e+00
-1.240894e-06 -1.691583e-05 0.000000e+00
-1.063214e-06 -1.691549e-05 0.000000e+00
-1.424411e-06 -1.780824e-05 0.000000e+00
-1.247377e-06 -1.825518e-05 0.000000e+00
-1.245804e-06 -1.780800e-05 0.000000e+00
-1.067404e-06 -1.780780e-05 0.000000e+00
-1.427543e-06 -1.870319e-05 0.000000e+00
-1.248850e-06 -1.915183e-05 0.000000e+00
-1.248360e-06 -1.870307e-05 0.000000e+00
-1.069446e-06 -1.870296e-05 0.000000e+00
-5.286586e-08 -3.314910e-08 0.000000e+00
-2.536415e-08 -9.577185e-09 0.000000e+00
-2.002370e-08 -7.478652e-09 0.000000e+00
0.000000e+00 0.000000e+00 0.000000e+00
-1.064039e-07 -1.181084e-07 0.000000e+00
-7.996050e-08 -6.909852e-08 0.000000e+00
-6.367091e-08 -6.615270e-08 0.000000e+00
-1.578789e-07 -2.551957e-07 0.000000e+00
-1.323677e-07 -1.802224e-07 0.000000e+00
-1.057045e-07 -1.774335e-07 0.000000e+00
-2.075814e-07 -4.428940e-07 0.000000e+00
-1.829481e-07 -3.428372e-07 0.000000e+00
-1.461771e-07 -3.401522e-07 0.000000e+00
-2.555377e-07 -6.794243e-07 0.000000e+00
-2.317768e-07 -5.551708e-07 0.000000e+00
-1.852390e-07 -5.525805e-07 0.000000e+00
-3.017500e-07 -9.630377e-07 0.000000e+00
-2.788611e-07 -8.154606e-07 0.000000e+00
-2.229062e-07 -8.129644e-07 0.000000e+00
-3.462185e-07 -1.291991e-06 0.000000e+00
-3.242015e-07 -1.121962e-06 0.000000e+00
-2.591785e-07 -1.119560e-06 0.000000e+00
-3.889431e-07 -1.664541e-06 0.000000e+00
-3.677980e-07 -1.472931e-06 0.000000e+00
-2.940558e-07 -1.470623e-06 0.000000e+00
-4.299238e-07 -2.078943e-06 0.000000e+00
-4.096507e-07 -1.866625e-06 0.000000e+00
-3.275379e-07 -1.864412e-06 0.000000e+00
-4.691607e-07 -2.533454e-06 0.000000e+00
-4.497595e-07 -2.301300e-06 0.000000e+00
-3.596250e-07 -2.299181e-06 0.000000e+00
-5.066537e-07 -3.026330e-06 0.000000e+00
-4.881245e-07 -2.775212e-06 0.000000e+00
-3.903169e-07 -2.773186e-06 0.000000e+00
-5.424029e-07 -3.555828e-06 0.000000e+00
-5.247456e-07 -3.286616e-06 0.000000e+00
-4.196138e-07 -3.284685e-06 0.000000e+00
-5.764082e-07 -4.120202e-06 0.000000e+00
-5.596228e-07 -3.833770e-06 0.000000e+00
-4.475156e-07 -3.831933e-06 0.000000e+00
-6.086696e-07 -4.717710e-06 0.000000e+00
-5.927562e-07 -4.414930e-06 0.000000e+00
-4.740223e-07 -4.413187e-06 0.000000e+00
-6.391872e-07 -5.346607e-06 0.000000e+00
-6.241457e-07 -5.028350e-06 0.000000e+00
-4.991339e-07 -5.026701e-06 0.000000e+00
-6.679609e-07 -6.005150e-06 0.000000e+00
-6.537913e-07 -5.672288e-06 0.000000e+00
-5.228504e-07 -5.670734e-06 0.000000e+00
-6.949908e-07 -6.691595e-06 0.000000e+00
-6.816931e-07 -6.345000e-06 0.000000e+00
-5.451718e-07 -6.343540e-06 0.000000e+00
-7.202768e-07 -7.404198e-06 0.000000e+00
-7.078510e-07 -7.044742e-06 0.000000e+00
-5.660982e-07 -7.043376e-06 0.000000e+00
-7.438189e-07 -8.141215e-06 0.000000e+00
-7.322651e-07 -7.769770e-06 0.000000e+00
-5.856294e-07 -7.768498e-06 0.000000e+00
-7.656172e-07 -8.900902e-06 0.000000e+00
-7.549353e-07 -8.518340e-06 0.000000e+00
-6.037656e-07 -8.517162e-06 0.000000e+00
-7.856716e-07 -9.681515e-06 0.000000e+00
-7.758616e-07 -9.288708e-06 0.000000e+00
-6.205066e-07 -9.287624e-06 0.000000e+00
-8.039821e-07 -1.048131e-05 0.000000e+00
-7.950441e-07 -1.007913e-05 0.000000e+00
-6.358526e-07 -1.007814e-05 0.000000e+00
-8.205488e-07 -1.129855e-05 0.000000e+00
-8.124827e-07 -1.088786e-05 0.000000e+00
-6.498035e-07 -1.088697e-05 0.000000e+00
-8.353716e-07 -1.213147e-05 0.000000e+00
-8.281775e-07 -1.171316e-05 0.000000e+00
-6.623593e-07 -1.171236e-05 0.000000e+00
-8.484506e-07 -1.297835e-05 0.000000e+00
-8.421284e-07 -1.255329e-05 0.000000e+00
-6.735200e-07 -1.255258e-05 0.000000e+00
-8.597857e-07 -1.383744e-05 0.000000e+00
-8.543354e-07 -1.340649e-05 0.000000e+00
-6.832857e-07 -1.340587e-05 0.000000e+00
-8.693770e-07 -1.470699e-05 0.000000e+00
-8.647986e-07 -1.427102e-05 0.000000e+00
-6.916562e-07 -1.427051e-05 0.000000e+00
-8.772244e-07 -1.558526e-05 0.000000e+00
-8.735179e-07 -1.514515e-05 0.000000e+00
-6.986317e-07 -1.514473e-05 0.000000e+00
-8.833281e-07 -1.647051e-05 0.000000e+00
-8.804935e-07 -1.602713e-05 0.000000e+00
-7.042121e-07 -1.602680e-05 0.000000e+00
-8.876839e-07 -1.736098e-05 0.000000e+00
-8.857247e-07 -1.691520e-05 0.000000e+00
-7.083954e-07 -1.691497e-05 0.000000e+00
-8.902327e-07 -1.825496e-05 0.000000e+00
-8.891922e-07 -1.780763e-05 0.000000e+00
-7.111490e-07 -1.780751e-05 0.000000e+00
-8.910872e-07 -1.915120e-05 0.000000e+00
-8.907968e-07 -1.870286e-05 0.000000e+00
-7.123724e-07 -1.870275e-05 0.000000e+00
-3.119084e-08 -2.787350e-08 0.000000e+00
-1.488057e-08 -5.950205e-09 0.000000e+00
-9.862538e-09 -4.904475e-09 0.000000e+00
0.000000e+00 0.000000e+00 0.000000e+00
-6.355333e-08 -1.130254e-07 0.000000e+00
-4.756635e-08 -6.385060e-08 0.000000e+00
-3.163439e-08 -6.219702e-08 0.000000e+00
-9.449195e-08 -2.503380e-07 0.000000e+00
-7.917348e-08 -1.752591e-07 0.000000e+00
-5.274669e-08 -1.737024e-07 0.000000e+00
-1.243129e-07 -4.382099e-07 0.000000e+00
-1.095342e-07 -3.380640e-07 0.000000e+00
-7.298760e-08 -3.365726e-07 0.000000e+00
-1.530856e-07 -6.749073e-07 0.000000e+00
-1.388296e-07 -5.505661e-07 0.000000e+00
-9.251637e-08 -5.491275e-07 0.000000e+00
-1.808129e-07 -9.586879e-07 0.000000e+00
-1.670797e-07 -8.110230e-07 0.000000e+00
-1.113494e-07 -8.096365e-07 0.000000e+00
-2.074940e-07 -1.287809e-06 0.000000e+00
-1.942840e-07 -1.117692e-06 0.000000e+00
-1.294856e-07 -1.116357e-06 0.000000e+00
-2.331288e-07 -1.660526e-06 0.000000e+00
-2.204419e-07 -1.468828e-06 0.000000e+00
-1.469242e-07 -1.467546e-06 0.000000e+00
-2.577172e-07 -2.075096e-06 0.000000e+00
-2.455535e-07 -1.862690e-06 0.000000e+00
-1.636653e-07 -1.861460e-06 0.000000e+00
-2.812593e-07 -2.529774e-06 0.000000e+00
-2.696188e-07 -2.297532e-06 0.000000e+00
-1.797088e-07 -2.296355e-06 0.000000e+00
-3.037552e-07 -3.022818e-06 0.000000e+00
-2.926378e-07 -2.771611e-06 0.000000e+00
-1.950548e-07 -2.770486e-06 0.000000e+00
-3.252047e-07 -3.552482e-06 0.000000e+00
-3.146104e-07 -3.283183e-06 0.000000e+00
-2.097033e-07 -3.282111e-06 0.000000e+00
-3.456078e-07 -4.117024e-06 0.000000e+00
-3.355368e-07 -3.830505e-06 0.000000e+00
-2.236542e-07 -3.829484e-06 0.000000e+00
-3.649647e-07 -4.714700e-06 0.000000e+00
-3.554168e-07 -4.411831e-06 0.000000e+00
-2.369075e-07 -4.410863e-06 0.000000e+00
-3.832752e-07 -5.343764e-06 0.000000e+00
-3.742505e-07 -5.025419e-06 0.000000e+00
-2.494633e-07 -5.024503e-06 0.000000e+00
-4.005395e-07 -6.002475e-06 0.000000e+00
-3.920379e-07 -5.669525e-06 0.000000e+00
-2.613216e-07 -5.668661e-06 0.000000e+00
-4.167574e-07 -6.689087e-06 0.000000e+00
-4.087790e-07 -6.342404e-06 0.000000e+00
-2.724823e-07 -6.341593e-06 0.000000e+00
-4.319290e-07 -7.401857e-06 0.000000e+00
-4.244737e-07 -7.042313e-06 0.000000e+00
-2.829455e-07 -7.041554e-06 0.000000e+00
-4.460543e-07 -8.139041e-06 0.000000e+00
-4.391222e-07 -7.767508e-06 0.000000e+00
-2.927111e-07 -7.766802e-06 0.000000e+00
-4.591332e-07 -8.898896e-06 0.000000e+00
-4.527243e-07 -8.516246e-06 0.000000e+00
-3.017792e-07 -8.515591e-06 0.000000e+00
-4.711659e-07 -9.679676e-06 0.000000e+00
-4.652801e-07 -9.286781e-06 0.000000e+00
-3.101497e-07 -9.286179e-06 0.000000e+00
-4.821522e-07 -1.047964e-05 0.000000e+00
-4.767896e-07 -1.007737e-05 0.000000e+00
-3.178227e-07 -1.007682e-05 0.000000e+00
-4.920922e-07 -1.129704e-05 0.000000e+00
-4.872527e-07 -1.088627e-05 0.000000e+00
-3.247981e-07 -1.088577e-05 0.000000e+00
-5.009859e-07 -1.213014e-05 0.000000e+00
-4.966696e-07 -1.171174e-05 0.000000e+00
-3.310760e-07 -1.171129e-05 0.000000e+00
-5.088333e-07 -1.297719e-05 0.000000e+00
-5.050401e-07 -1.255203e-05 0.000000e+00
-3.366564e-07 -1.255164e-05 0.000000e+00
-5.156343e-07 -1.383644e-05 0.000000e+00
-5.123644e-07 -1.340540e-05 0.000000e+00
-3.415392e-07 -1.340506e-05 0.000000e+00
-5.213891e-07 -1.470616e-05 0.000000e+00
-5.186423e-07 -1.427010e-05 0.000000e+00
-3.457245e-07 -1.426981e-05 0.000000e+00
-5.260975e-07 -1.558459e-05 0.000000e+00
-5.238739e-07 -1.514440e-05 0.000000e+00
-3.492122e-07 -1.514416e-05 0.000000e+00
-5.297591e-07 -1.647001e-05 0.000000e+00
-5.280591e-07 -1.602654e-05 0.000000e+00
-3.520022e-07 -1.602636e-05 0.000000e+00
-5.323622e-07 -1.736066e-05 0.000000e+00
-5.311948e-07 -1.691479e-05 0.000000e+00
-3.540917e-07 -1.691466e-05 0.000000e+00
-5.338305e-07 -1.825484e-05 0.000000e+00
-5.332459e-07 -1.780741e-05 0.000000e+00
-3.554514e-07 -1.780735e-05 0.000000e+00
-5.343014e-07 -1.915054e-05 0.000000e+00
-5.341316e-07 -1.870266e-05 0.000000e+00
-3.560315e-07 -1.870259e-05 0.000000e+00
-1.033043e-08 -2.532940e-08 0.000000e+00
-4.896439e-09 -4.295152e-09 0.000000e+00
3.641178e-11 -4.090928e-09 0.000000e+00
0.000000e+00 0.000000e+00 0.000000e+00
-2.117244e-08 -1.104561e-07 0.000000e+00
-1.580846e-08 -6.120193e-08 0.000000e+00
-5.328237e-11 -6.085895e-08 0.000000e+00
-3.149352e-08 -2.479082e-07 0.000000e+00
-2.638903e-08 -1.727667e-07 0.000000e+00
-6.621505e-11 -1.724538e-07 0.000000e+00
-4.142925e-08 -4.358683e-07 0.000000e+00
-3.650488e-08 -3.356783e-07 0.000000e+00
-5.378909e-11 -3.353809e-07 0.000000e+00
-5.101876e-08 -6.726486e-07 0.000000e+00
-4.626721e-08 -5.482645e-07 0.000000e+00
-5.000442e-11 -5.479771e-07 0.000000e+00
-6.026100e-08 -9.565126e-07 0.000000e+00
-5.568335e-08 -8.088045e-07 0.000000e+00
-4.931506e-11 -8.085272e-07 0.000000e+00
-6.915473e-08 -1.285717e-06 0.000000e+00
-6.475140e-08 -1.115557e-06 0.000000e+00
-4.929985e-11 -1.115290e-06 0.000000e+00
-7.769969e-08 -1.658518e-06 0.000000e+00
-7.347075e-08 -1.466777e-06 0.000000e+00
-4.934434e-11 -1.466521e-06 0.000000e+00
-8.589585e-08 -2.073171e-06 0.000000e+00
-8.184131e-08 -1.860722e-06 0.000000e+00
-4.936353e-11 -1.860476e-06 0.000000e+00
-9.374322e-08 -2.527934e-06 0.000000e+00
-8.986308e-08 -2.295648e-06 0.000000e+00
-4.936812e-11 -2.295413e-06 0.000000e+00
-1.012418e-07 -3.021061e-06 0.000000e+00
-9.753607e-08 -2.769811e-06 0.000000e+00
-4.936860e-11 -2.769586e-06 0.000000e+00
-1.083917e-07 -3.550809e-06 0.000000e+00
-1.048603e-07 -3.281467e-06 0.000000e+00
-4.936847e-11 -3.281252e-06 0.000000e+00
-1.151927e-07 -4.115435e-06 0.000000e+00
-1.118357e-07 -3.828872e-06 0.000000e+00
-4.936838e-11 -3.828668e-06 0.000000e+00
-1.216450e-07 -4.713194e-06 0.000000e+00
-1.184624e-07 -4.410282e-06 0.000000e+00
-4.936836e-11 -4.410088e-06 0.000000e+00
-1.277485e-07 -5.342342e-06 0.000000e+00
-1.247403e-07 -5.023954e-06 0.000000e+00
-4.936835e-11 -5.023771e-06 0.000000e+00
-1.335033e-07 -6.001136e-06 0.000000e+00
-1.306694e-07 -5.668143e-06 0.000000e+00
-4.936835e-11 -5.667970e-06 0.000000e+00
-1.389092e-07 -6.687832e-06 0.000000e+00
-1.362498e-07 -6.341106e-06 0.000000e+00
-4.936835e-11 -6.340944e-06 0.000000e+00
-1.439664e-07 -7.400686e-06 0.000000e+00
-1.414814e-07 -7.041099e-06 0.000000e+00
-4.936835e-11 -7.040947e-06 0.000000e+00
-1.486749e-07 -8.137954e-06 0.000000e+00
-1.463642e-07 -7.766378e-06 0.000000e+00
-4.936835e-11 -7.766236e-06 0.000000e+00
-1.530345e-07 -8.897892e-06 0.000000e+00
-1.508982e-07 -8.515199e-06 0.000000e+00
-4.936835e-11 -8.515068e-06 0.000000e+00
-1.570454e-07 -9.678757e-06 0.000000e+00
-1.550835e-07 -9.285818e-06 0.000000e+00
-4.936834e-11 -9.285698e-06 0.000000e+00
-1.607075e-07 -1.047880e-05 0.000000e+00
-1.589200e-07 -1.007649e-05 0.000000e+00
-4.936834e-11 -1.007638e-05 0.000000e+00
-1.640208e-07 -1.129629e-05 0.000000e+00
-1.624077e-07 -1.088548e-05 0.000000e+00
-4.936837e-11 -1.088538e-05 0.000000e+00
-1.669854e-07 -1.212947e-05 0.000000e+00
-1.655467e-07 -1.171103e-05 0.000000e+00
-4.936865e-11 -1.171094e-05 0.000000e+00
-1.696012e-07 -1.297660e-05 0.000000e+00
-1.683368e-07 -1.255140e-05 0.000000e+00
-4.936975e-11 -1.255132e-05 0.000000e+00
-1.718682e-07 -1.383594e-05 0.000000e+00
-1.707783e-07 -1.340485e-05 0.000000e+00
-4.937214e-11 -1.340479e-05 0.000000e+00
-1.737865e-07 -1.470574e-05 0.000000e+00
-1.728709e-07 -1.426964e-05 0.000000e+00
-4.937037e-11 -1.426958e-05 0.000000e+00
-1.753559e-07 -1.558426e-05 0.000000e+00
-1.746147e-07 -1.514402e-05 0.000000e+00
-4.932932e-11 -1.514397e-05 0.000000e+00
-1.765759e-07 -1.646976e-05 0.000000e+00
-1.760096e-07 -1.602625e-05 0.000000e+00
-4.912365e-11 -1.602621e-05 0.000000e+00
-1.774406e-07 -1.736050e-05 0.000000e+00
-1.770536e-07 -1.691458e-05 0.000000e+00
-4.837616e-11 -1.691456e-05 0.000000e+00
-1.779218e-07 -1.825478e-05 0.000000e+00
-1.777318e-07 -1.780731e-05 0.000000e+00
-4.848761e-11 -1.780729e-05 0.000000e+00
-1.780709e-07 -1.915015e-05 0.000000e+00
-1.780226e-07 -1.870255e-05 0.000000e+00
-6.253346e-11 -1.870254e-05 0.000000e+00
1.028938e-08 -2.528212e-08 0.000000e+00
4.981832e-09 -4.286595e-09 0.000000e+00
9.951723e-09 -4.888688e-09 0.000000e+00
0.000000e+00 0.000000e+00 0.000000e+00
2.103636e-08 -1.104460e-07 0.000000e+00
1.570584e-08 -6.117123e-08 0.000000e+00
3.150805e-08 -6.213536e-08 0.000000e+00
3.137725e-08 -2.479131e-07 0.000000e+00
2.625891e-08 -1.727656e-07 0.000000e+00
5.262190e-08 -1.737015e-07 0.000000e+00
4.132699e-08 -4.358705e-07 0.000000e+00
3.639771e-08 -3.356805e-07 0.000000e+00
7.288223e-08 -3.365769e-07 0.000000e+00
5.091980e-08 -6.726496e-07 0.000000e+00
4.616727e-08 -5.482651e-07 0.000000e+00
9.241671e-08 -5.491285e-07 0.000000e+00
6.016243e-08 -9.565133e-07 0.000000e+00
5.558471e-08 -8.088044e-07 0.000000e+00
1.112508e-07 -8.096361e-07 0.000000e+00
6.905608e-08 -1.285718e-06 0.000000e+00
6.465280e-08 -1.115556e-06 0.000000e+00
1.293870e-07 -1.116357e-06 0.000000e+00
7.760097e-08 -1.658518e-06 0.000000e+00
7.337206e-08 -1.466777e-06 0.000000e+00
1.468255e-07 -1.467546e-06 0.000000e+00
8.579711e-08 -2.073172e-06 0.000000e+00
8.174258e-08 -1.860722e-06 0.000000e+00
1.635666e-07 -1.861460e-06 0.000000e+00
9.364449e-08 -2.527934e-06 0.000000e+00
8.976434e-08 -2.295648e-06 0.000000e+00
1.796101e-07 -2.296354e-06 0.000000e+00
1.011431e-07 -3.021061e-06 0.000000e+00
9.743733e-08 -2.769811e-06 0.000000e+00
1.949561e-07 -2.770485e-06 0.000000e+00
1.082929e-07 -3.550810e-06 0.000000e+00
1.047615e-07 -3.281467e-06 0.000000e+00
2.096045e-07 -3.282110e-06 0.000000e+00
1.150940e-07 -4.115435e-06 0.000000e+00
1.117370e-07 -3.828872e-06 0.000000e+00
2.235554e-07 -3.829483e-06 0.000000e+00
1.215463e-07 -4.713194e-06 0.000000e+00
1.183637e-07 -4.410282e-06 0.000000e+00
2.368088e-07 -4.410862e-06 0.000000e+00
1.276498e-07 -5.342343e-06 0.000000e+00
1.246416e-07 -5.023954e-06 0.000000e+00
2.493646e-07 -5.024503e-06 0.000000e+00
1.334045e-07 -6.001137e-06 0.000000e+00
1.305707e-07 -5.668143e-06 0.000000e+00
2.612228e-07 -5.668661e-06 0.000000e+00
1.388105e-07 -6.687833e-06 0.000000e+00
1.361511e-07 -6.341106e-06 0.000000e+00
2.723836e-07 -6.341592e-06 0.000000e+00
1.438677e-07 -7.400687e-06 0.000000e+00
1.413826e-07 -7.041099e-06 0.000000e+00
2.828467e-07 -7.041554e-06 0.000000e+00
1.485761e-07 -8.137955e-06 0.000000e+00
1.462655e-07 -7.766378e-06 0.000000e+00
2.926123e-07 -7.766801e-06 0.000000e+00
1.529358e-07 -8.897893e-06 0.000000e+00
1.507995e-07 -8.515199e-06 0.000000e+00
3.016804e-07 -8.515591e-06 0.000000e+00
1.569467e-07 -9.678757e-06 0.000000e+00
1.549848e-07 -9.285818e-06 0.000000e+00
3.100510e-07 -9.286179e-06 0.000000e+00
1.606088e-07 -1.047880e-05 0.000000e+00
1.588213e-07 -1.007649e-05 0.000000e+00
3.177240e-07 -1.007682e-05 0.000000e+00
1.639221e-07 -1.129629e-05 0.000000e+00
1.623090e-07 -1.088548e-05 0.000000e+00
3.246994e-07 -1.088577e-05 0.000000e+00
1.668867e-07 -1.212947e-05 0.000000e+00
1.654479e-07 -1.171103e-05 0.000000e+00
3.309773e-07 -1.171129e-05 0.000000e+00
1.695025e-07 -1.297660e-05 0.000000e+00
1.682381e-07 -1.255140e-05 0.000000e+00
3.365577e-07 -1.255164e-05 0.000000e+00
1.717695e-07 -1.383594e-05 0.000000e+00
1.706795e-07 -1.340485e-05 0.000000e+00
3.414405e-07 -1.340506e-05 0.000000e+00
1.736877e-07 -1.470574e-05 0.000000e+00
1.727722e-07 -1.426964e-05 0.000000e+00
3.456257e-07 -1.426981e-05 0.000000e+00
1.752573e-07 -1.558426e-05 0.000000e+00
1.745161e-07 -1.514402e-05 0.000000e+00
3.491135e-07 -1.514416e-05 0.000000e+00
1.764782e-07 -1.646976e-05 0.000000e+00
1.759114e-07 -1.602625e-05 0.000000e+00
3.519039e-07 -1.602636e-05 0.000000e+00
1.773444e-07 -1.736050e-05 0.000000e+00
1.769567e-07 -1.691458e-05 0.000000e+00
3.539944e-07 -1.691466e-05 0.000000e+00
1.778175e-07 -1.825478e-05 0.000000e+00
1.776338e-07 -1.780730e-05 0.000000e+00
3.553552e-07 -1.780734e-05 0.000000e+00
1.779764e-07 -1.915016e-05 0.000000e+00
1.779004e-07 -1.870255e-05 0.000000e+00
3.559081e-07 -1.870260e-05 0.000000e+00
3.112800e-08 -2.769954e-08 0.000000e+00
1.499722e-08 -5.927501e-09 0.000000e+00
2.014655e-08 -7.449356e-09 0.000000e+00
0.000000e+00 0.000000e+00 0.000000e+00
6.342177e-08 -1.130120e-07 0.000000e+00
4.742635e-08 -6.375541e-08 0.000000e+00
6.349872e-08 -6.603064e-08 0.000000e+00
9.438460e-08 -2.503513e-07 0.000000e+00
7.905811e-08 -1.752594e-07 0.000000e+00
1.056008e-07 -1.774363e-07 0.000000e+00
1.242125e-07 -4.382167e-07 0.000000e+00
1.094312e-07 -3.380695e-07 0.000000e+00
1.460770e-07 -3.401581e-07 0.000000e+00
1.529868e-07 -6.749110e-07 0.000000e+00
1.387303e-07 -5.505672e-07 0.000000e+00
1.851401e-07 -5.525811e-07 0.000000e+00
1.807142e-07 -9.586906e-07 0.000000e+00
1.669811e-07 -8.110223e-07 0.000000e+00
2.228075e-07 -8.129628e-07 0.000000e+00
2.073953e-07 -1.287811e-06 0.000000e+00
1.941853e-07 -1.117690e-06 0.000000e+00
2.590798e-07 -1.119558e-06 0.000000e+00
2.330300e-07 -1.660528e-06 0.000000e+00
2.203432e-07 -1.468827e-06 0.000000e+00
2.939570e-07 -1.470621e-06 0.000000e+00
2.576185e-07 -2.075098e-06 0.000000e+00
2.454548e-07 -1.862689e-06 0.000000e+00
3.274392e-07 -1.864409e-06 0.000000e+00
2.811606e-07 -2.529777e-06 0.000000e+00
2.695201e-07 -2.297531e-06 0.000000e+00
3.595262e-07 -2.299178e-06 0.000000e+00
3.036564e-07 -3.022820e-06 0.000000e+00
2.925391e-07 -2.771610e-06 0.000000e+00
3.902182e-07 -2.773184e-06 0.000000e+00
3.251059e-07 -3.552485e-06 0.000000e+00
3.145117e-07 -3.283182e-06 0.000000e+00
4.195151e-07 -3.284683e-06 0.000000e+00
3.455091e-07 -4.117027e-06 0.000000e+00
3.354380e-07 -3.830503e-06 0.000000e+00
4.474168e-07 -3.831931e-06 0.000000e+00
3.648660e-07 -4.714702e-06 0.000000e+00
3.553181e-07 -4.411830e-06 0.000000e+00
4.739235e-07 -4.413184e-06 0.000000e+00
3.831765e-07 -5.343767e-06 0.000000e+00
3.741518e-07 -5.025418e-06 0.000000e+00
4.990351e-07 -5.026699e-06 0.000000e+00
4.004407e-07 -6.002477e-06 0.000000e+00
3.919392e-07 -5.669523e-06 0.000000e+00
5.227517e-07 -5.670732e-06 0.000000e+00
4.166587e-07 -6.689090e-06 0.000000e+00
4.086802e-07 -6.342403e-06 0.000000e+00
5.450731e-07 -6.343538e-06 0.000000e+00
4.318303e-07 -7.401860e-06 0.000000e+00
4.243750e-07 -7.042312e-06 0.000000e+00
5.659994e-07 -7.043373e-06 0.000000e+00
4.459555e-07 -8.139044e-06 0.000000e+00
4.390234e-07 -7.767507e-06 0.000000e+00
5.855307e-07 -7.768495e-06 0.000000e+00
4.590345e-07 -8.898898e-06 0.000000e+00
4.526255e-07 -8.516244e-06 0.000000e+00
6.036668e-07 -8.517159e-06 0.000000e+00
4.710671e-07 -9.679679e-06 0.000000e+00
4.651814e-07 -9.286780e-06 0.000000e+00
6.204079e-07 -9.287622e-06 0.000000e+00
4.820535e-07 -1.047964e-05 0.000000e+00
4.766908e-07 -1.007737e-05 0.000000e+00
6.357539e-07 -1.007814e-05 0.000000e+00
4.919935e-07 -1.129704e-05 0.000000e+00
4.871540e-07 -1.088627e-05 0.000000e+00
6.497048e-07 -1.088697e-05 0.000000e+00
5.008872e-07 -1.213014e-05 0.000000e+00
4.965709e-07 -1.171174e-05 0.000000e+00
6.622606e-07 -1.171236e-05 0.000000e+00
5.087345e-07 -1.297719e-05 0.000000e+00
5.049414e-07 -1.255203e-05 0.000000e+00
6.734213e-07 -1.255258e-05 0.000000e+00
5.155356e-07 -1.383644e-05 0.000000e+00
5.122656e-07 -1.340540e-05 0.000000e+00
6.831869e-07 -1.340587e-05 0.000000e+00
5.212904e-07 -1.470616e-05 0.000000e+00
5.185435e-07 -1.427010e-05 0.000000e+00
6.915575e-07 -1.427050e-05 0.000000e+00
5.259989e-07 -1.558460e-05 0.000000e+00
5.237752e-07 -1.514440e-05 0.000000e+00
6.985329e-07 -1.514473e-05 0.000000e+00
5.296609e-07 -1.647001e-05 0.000000e+00
5.279606e-07 -1.602654e-05 0.000000e+00
7.041134e-07 -1.602679e-05 0.000000e+00
5.322649e-07 -1.736066e-05 0.000000e+00
5.310970e-07 -1.691479e-05 0.000000e+00
7.082969e-07 -1.691497e-05 0.000000e+00
5.337293e-07 -1.825483e-05 0.000000e+00
5.331494e-07 -1.780740e-05 0.000000e+00
7.110530e-07 -1.780750e-05 0.000000e+00
5.342051e-07 -1.915056e-05 0.000000e+00
5.340129e-07 -1.870267e-05 0.000000e+00
7.122580e-07 -1.870276e-05 0.000000e+00
5.269761e-08 -3.275943e-08 0.000000e+00
2.549038e-08 -9.528463e-09 0.000000e+00
3.113522e-08 -1.226758e-08 0.000000e+00
0.000000e+00 0.000000e+00 0.000000e+00
1.063057e-07 -1.181166e-07 0.000000e+00
7.978791e-08 -6.895985e-08 0.000000e+00
9.631515e-08 -7.253443e-08 0.000000e+00
1.577845e-07 -2.552153e-07 0.000000e+00
1.322767e-07 -1.802268e-07 0.000000e+00
1.591145e-07 -1.836282e-07 0.000000e+00
2.074833e-07 -4.429078e-07 0.000000e+00
1.828510e-07 -3.428421e-07 0.000000e+00
2.197846e-07 -3.461211e-07 0.000000e+00
2.554390e-07 -6.794340e-07 0.000000e+00
2.316783e-07 -5.551701e-07 0.000000e+00
2.783765e-07 -5.583337e-07 0.000000e+00
3.016512e-07 -9.630462e-07 0.000000e+00
2.787623e-07 -8.154574e-07 0.000000e+00
3.348774e-07 -8.185060e-07 0.000000e+00
3.461197e-07 -1.291999e-06 0.000000e+00
3.241027e-07 -1.121958e-06 0.000000e+00
3.892859e-07 -1.124892e-06 0.000000e+00
3.888443e-07 -1.664549e-06 0.000000e+00
3.676993e-07 -1.472927e-06 0.000000e+00
4.416018e-07 -1.475746e-06 0.000000e+00
4.298251e-07 -2.078951e-06 0.000000e+00
4.095520e-07 -1.866622e-06 0.000000e+00
4.918250e-07 -1.869325e-06 0.000000e+00
4.690620e-07 -2.533463e-06 0.000000e+00
4.496608e-07 -2.301296e-06 0.000000e+00
5.399556e-07 -2.303884e-06 0.000000e+00
5.065550e-07 -3.026339e-06 0.000000e+00
4.880257e-07 -2.775208e-06 0.000000e+00
5.859935e-07 -2.777681e-06 0.000000e+00
5.423042e-07 -3.555836e-06 0.000000e+00
5.246468e-07 -3.286613e-06 0.000000e+00
6.299388e-07 -3.288971e-06 0.000000e+00
5.763095e-07 -4.120210e-06 0.000000e+00
5.595241e-07 -3.833767e-06 0.000000e+00
6.717915e-07 -3.836009e-06 0.000000e+00
6.085709e-07 -4.717718e-06 0.000000e+00
5.926574e-07 -4.414926e-06 0.000000e+00
7.115515e-07 -4.417053e-06 0.000000e+00
6.390885e-07 -5.346616e-06 0.000000e+00
6.240469e-07 -5.028346e-06 0.000000e+00
7.492190e-07 -5.030359e-06 0.000000e+00
6.678622e-07 -6.005159e-06 0.000000e+00
6.536926e-07 -5.672284e-06 0.000000e+00
7.847937e-07 -5.674182e-06 0.000000e+00
6.948921e-07 -6.691604e-06 0.000000e+00
6.815944e-07 -6.344996e-06 0.000000e+00
8.182759e-07 -6.346779e-06 0.000000e+00
7.201780e-07 -7.404206e-06 0.000000e+00
7.077523e-07 -7.044738e-06 0.000000e+00
8.496654e-07 -7.046406e-06 0.000000e+00
7.437202e-07 -8.141223e-06 0.000000e+00
7.321664e-07 -7.769766e-06 0.000000e+00
8.789623e-07 -7.771318e-06 0.000000e+00
7.655184e-07 -8.900910e-06 0.000000e+00
7.548366e-07 -8.518336e-06 0.000000e+00
9.061665e-07 -8.519773e-06 0.000000e+00
7.855729e-07 -9.681523e-06 0.000000e+00
7.757629e-07 -9.288704e-06 0.000000e+00
9.312781e-07 -9.290026e-06 0.000000e+00
8.038834e-07 -1.048132e-05 0.000000e+00
7.949454e-07 -1.007913e-05 0.000000e+00
9.542971e-07 -1.008033e-05 0.000000e+00
8.204501e-07 -1.129855e-05 0.000000e+00
8.123840e-07 -1.088786e-05 0.000000e+00
9.752234e-07 -1.088895e-05 0.000000e+00
8.352729e-07 -1.213148e-05 0.000000e+00
8.280787e-07 -1.171316e-05 0.000000e+00
9.940571e-07 -1.171414e-05 0.000000e+00
8.483519e-07 -1.297836e-05 0.000000e+00
8.420296e-07 -1.255328e-05 0.000000e+00
1.010798e-06 -1.255414e-05 0.000000e+00
8.596870e-07 -1.383745e-05 0.000000e+00
8.542367e-07 -1.340648e-05 0.000000e+00
1.025447e-06 -1.340723e-05 0.000000e+00
8.692782e-07 -1.470700e-05 0.000000e+00
8.646998e-07 -1.427102e-05 0.000000e+00
1.038002e-06 -1.427165e-05 0.000000e+00
8.771256e-07 -1.558527e-05 0.000000e+00
8.734192e-07 -1.514515e-05 0.000000e+00
1.048466e-06 -1.514566e-05 0.000000e+00
8.832291e-07 -1.647051e-05 0.000000e+00
8.803946e-07 -1.602712e-05 0.000000e+00
1.056836e-06 -1.602752e-05 0.000000e+00
8.875842e-07 -1.736098e-05 0.000000e+00
8.856255e-07 -1.691520e-05 0.000000e+00
1.063114e-06 -1.691548e-05 0.000000e+00
8.901369e-07 -1.825495e-05 0.000000e+00
8.890948e-07 -1.780762e-05 0.000000e+00
1.067303e-06 -1.780779e-05 0.000000e+00
8.909843e-07 -1.915124e-05 0.000000e+00
8.906933e-07 -1.870286e-05 0.000000e+00
1.069364e-06 -1.870296e-05 0.000000e+00
7.566218e-08 -4.067801e-08 0.000000e+00
3.731692e-08 -1.579458e-08 0.000000e+00
4.454115e-08 -2.027848e-08 0.000000e+00
0.000000e+00 0.000000e+00 0.000000e+00
1.498759e-07 -1.256783e-07 0.000000e+00
1.130863e-07 -7.673189e-08 0.000000e+00
1.300551e-07 -8.152781e-08 0.000000e+00
2.218273e-07 -2.625034e-07 0.000000e+00
1.861311e-07 -1.876375e-07 0.000000e+00
2.133522e-07 -1.922605e-07 0.000000e+00
2.913999e-07 -4.499455e-07 0.000000e+00
2.569097e-07 -3.499957e-07 0.000000e+00
2.942514e-07 -3.544663e-07 0.000000e+00
3.585378e-07 -6.862206e-07 0.000000e+00
3.252665e-07 -5.620724e-07 0.000000e+00
3.723742e-07 -5.663865e-07 0.000000e+00
4.232351e-07 -9.695817e-07 0.000000e+00
3.911843e-07 -8.221086e-07 0.000000e+00
4.477091e-07 -8.262658e-07 0.000000e+00
4.854910e-07 -1.298284e-06 0.000000e+00
4.546609e-07 -1.128358e-06 0.000000e+00
5.202539e-07 -1.132358e-06 0.000000e+00
5.453055e-07 -1.670582e-06 0.000000e+00
5.156961e-07 -1.479076e-06 0.000000e+00
5.900085e-07 -1.482920e-06 0.000000e+00
6.026786e-07 -2.084733e-06 0.000000e+00
5.742899e-07 -1.872519e-06 0.000000e+00
6.569728e-07 -1.876206e-06 0.000000e+00
6.576102e-07 -2.538994e-06 0.000000e+00
6.304422e-07 -2.306943e-06 0.000000e+00
7.211469e-07 -2.310472e-06 0.000000e+00
7.101004e-07 -3.031619e-06 0.000000e+00
6.841532e-07 -2.780604e-06 0.000000e+00
7.825308e-07 -2.783976e-06 0.000000e+00
7.601493e-07 -3.560865e-06 0.000000e+00
7.354227e-07 -3.291757e-06 0.000000e+00
8.411246e-07 -3.294973e-06 0.000000e+00
8.077567e-07 -4.124988e-06 0.000000e+00
7.842508e-07 -3.838660e-06 0.000000e+00
8.969281e-07 -3.841718e-06 0.000000e+00
8.529227e-07 -4.722245e-06 0.000000e+00
8.306376e-07 -4.419568e-06 0.000000e+00
9.499415e-07 -4.422470e-06 0.000000e+00
8.956473e-07 -5.350891e-06 0.000000e+00
8.745829e-07 -5.032737e-06 0.000000e+00
1.000165e-06 -5.035482e-06 0.000000e+00
9.359305e-07 -6.009183e-06 0.000000e+00
9.160868e-07 -5.676425e-06 0.000000e+00
1.047598e-06 -5.679012e-06 0.000000e+00
9.737723e-07 -6.695377e-06 0.000000e+00
9.551493e-07 -6.348885e-06 0.000000e+00
1.092241e-06 -6.351316e-06 0.000000e+00
1.009173e-06 -7.407728e-06 0.000000e+00
9.917704e-07 -7.048376e-06 0.000000e+00
1.134093e-06 -7.050650e-06 0.000000e+00
1.042132e-06 -8.144494e-06 0.000000e+00
1.025950e-06 -7.773153e-06 0.000000e+00
1.173156e-06 -7.775269e-06 0.000000e+00
1.072649e-06 -8.903930e-06 0.000000e+00
1.057688e-06 -8.521471e-06 0.000000e+00
1.209428e-06 -8.523431e-06 0.000000e+00
1.100725e-06 -9.684292e-06 0.000000e+00
1.086985e-06 -9.291588e-06 0.000000e+00
1.242910e-06 -9.293391e-06 0.000000e+00
1.126360e-06 -1.048384e-05 0.000000e+00
1.113841e-06 -1.008176e-05 0.000000e+00
1.273602e-06 -1.008341e-05 0.000000e+00
1.149554e-06 -1.130082e-05 0.000000e+00
1.138255e-06 -1.089024e-05 0.000000e+00
1.301504e-06 -1.089173e-05 0.000000e+00
1.170306e-06 -1.213350e-05 0.000000e+00
1.160227e-06 -1.171529e-05 0.000000e+00
1.326616e-06 -1.171662e-05 0.000000e+00
1.188616e-06 -1.298013e-05 0.000000e+00
1.179759e-06 -1.255516e-05 0.000000e+00
1.348937e-06 -1.255634e-05 0.000000e+00
1.204485e-06 -1.383896e-05 0.000000e+00
1.196848e-06 -1.340811e-05 0.000000e+00
1.368468e-06 -1.340913e-05 0.000000e+00
1.217913e-06 -1.470826e-05 0.000000e+00
1.211497e-06 -1.427240e-05 0.000000e+00
1.385209e-06 -1.427326e-05 0.000000e+00
1.228899e-06 -1.558628e-05 0.000000e+00
1.223704e-06 -1.514627e-05 0.000000e+00
1.399160e-06 -1.514698e-05 0.000000e+00
1.237444e-06 -1.647127e-05 0.000000e+00
1.233469e-06 -1.602800e-05 0.000000e+00
1.410320e-06 -1.602855e-05 0.000000e+00
1.243552e-06 -1.736149e-05 0.000000e+00
1.240794e-06 -1.691582e-05 0.000000e+00
1.418690e-06 -1.691621e-05 0.000000e+00
1.247282e-06 -1.825518e-05 0.000000e+00
1.245699e-06 -1.780799e-05 0.000000e+00
1.424303e-06 -1.780823e-05 0.000000e+00
1.248745e-06 -1.915191e-05 0.000000e+00
1.248301e-06 -1.870306e-05 0.000000e+00
1.427515e-06 -1.870317e-05 0.000000e+00

SCALARS Displacement_Magnitude float
LOOKUP_TABLE default
0.000000e+00
9.876835e-08
2.157922e-07
3.687110e-07
5.637461e-07
8.032556e-07
1.087505e-06
1.415760e-06
1.786811e-06
2.199211e-06
2.651392e-06
3.141717e-06
3.668511e-06
4.230075e-06
4.824697e-06
5.450654e-06
6.106219e-06
6.789658e-06
7.499238e-06
8.233220e-06
8.989867e-06
9.767439e-06
1.056420e-05
1.137840e-05
1.220830e-05
1.305216e-05
1.390824e-05
1.477480e-05
1.565010e-05
1.653238e-05
1.741992e-05
1.831096e-05
1.920519e-05
0.000000e+00
7.417046e-08
1.765865e-07
3.207209e-07
5.111147e-07
7.483904e-07
1.031782e-06
1.359990e-06
1.731488e-06
2.144650e-06
2.597799e-06
3.089233e-06
3.617232e-06
4.180069e-06
4.776014e-06
5.403329e-06
6.060277e-06
6.745119e-06
7.456114e-06
8.191521e-06
8.949598e-06
9.728604e-06
1.052679e-05
1.134243e-05
1.217376e-05
1.301906e-05
1.387656e-05
1.474454e-05
1.562125e-05
1.650494e-05
1.739387e-05
1.828631e-05
1.918142e-05
0.000000e+00
5.162617e-08
1.431503e-07
2.822134e-07
4.704738e-07
7.070282e-07
9.904148e-07
1.319008e-06
1.691120e-06
2.105037e-06
2.559032e-06
3.051370e-06
3.580316e-06
4.144130e-06
4.741070e-06
5.369396e-06
6.027364e-06
6.713233e-06
7.425259e-06
8.161700e-06
8.920813e-06
9.700853e-06
1.050008e-05
1.131674e-05
1.214911e-05
1.299543e-05
1.385395e-05
1.472295e-05
1.560067e-05
1.648537e-05
1.737530e-05
1.826877e-05
1.916410e-05
0.000000e+00
3.345114e-08
1.191928e-07
2.566610e-07
4.445330e-07
6.811787e-07
9.648829e-07
1.293913e-06
1.666530e-06
2.080995e-06
2.535564e-06
3.028495e-06
3.558046e-06
4.122473e-06
4.720032e-06
5.348980e-06
6.007574e-06
6.694070e-06
7.406723e-06
8.143791e-06
8.903530e-06
9.684196e-06
1.048404e-05
1.130133e-05
1.213432e-05
1.298125e-05
1.384040e-05
1.471000e-05
1.558833e-05
1.647364e-05
1.736418e-05
1.825827e-05
1.915361e-05
0.000000e+00
2.498341e-08
1.101277e-07
2.476065e-07
4.355765e-07
6.723666e-07
9.562409e-07
1.285456e-06
1.658267e-06
2.072931e-06
2.527704e-06
3.020841e-06
3.550600e-06
4.115236e-06
4.713006e-06
5.342165e-06
6.000969e-06
6.687676e-06
7.400540e-06
8.137818e-06
8.897767e-06
9.678642e-06
1.047870e-05
1.129620e-05
1.212939e-05
1.297653e-05
1.383588e-05
1.470569e-05
1.558422e-05
1.646973e-05
1.736048e-05
1.825477e-05
1.915009e-05
0.000000e+00
3.331701e-08
1.191266e-07
2.566434e-07
4.445184e-07
6.811659e-07
9.648720e-07
1.293904e-06
1.666522e-06
2.080988e-06
2.535558e-06
3.028490e-06
3.558041e-06
4.122468e-06
4.720028e-06
5.348977e-06
6.007571e-06
6.694067e-06
7.406721e-06
8.143789e-06
8.903528e-06
9.684194e-06
1.048404e-05
1.130133e-05
1.213432e-05
1.298125e-05
1.384039e-05
1.471000e-05
1.558833e-05
1.647364e-05
1.736418e-05
1.825826e-05
1.915361e-05
0.000000e+00
5.134616e-08
1.430840e-07
2.821837e-07
4.704475e-07
7.070049e-07
9.903951e-07
1.318991e-06
1.691106e-06
2.105025e-06
2.559021e-06
3.051362e-06
3.580309e-06
4.144123e-06
4.741064e-06
5.369390e-06
6.027360e-06
6.713229e-06
7.425256e-06
8.161697e-06
8.920810e-06
9.700851e-06
1.050008e-05
1.131674e-05
1.214911e-05
1.299543e-05
1.385395e-05
1.472295e-05
1.560067e-05
1.648537e-05
1.737531e-05
1.826875e-05
1.916412e-05
0.000000e+00
7.358001e-08
1.765624e-07
3.206860e-07
5.110839e-07
7.483635e-07
1.031760e-06
1.359972e-06
1.731474e-06
2.144639e-06
2.597791e-06
3.089226e-06
3.617227e-06
4.180066e-06
4.776012e-06
5.403328e-06
6.060277e-06
6.745120e-06
7.456116e-06
8.191524e-06
8.949602e-06
9.728608e-06
1.052680e-05
1.134243e-05
1.217377e-05
1.301906e-05
1.387657e-05
1.474455e-05
1.562126e-05
1.650495e-05
1.739388e-05
1.828630e-05
1.918147e-05
0.000000e+00
9.914517e-08
2.157526e-07
3.686791e-07
5.637158e-07
8.032309e-07
1.087487e-06
1.415748e-06
1.786803e-06
2.199208e-06
2.651392e-06
3.141720e-06
3.668516e-06
4.230082e-06
4.824706e-06
5.450664e-06
6.106230e-06
6.789671e-06
7.499251e-06
8.233235e-06
8.989883e-06
9.767455e-06
1.056421e-05
1.137841e-05
1.220832e-05
1.305218e-05
1.390826e-05
1.477482e-05
1.565012e-05
1.653240e-05
1.741993e-05
1.831098e-05
1.920527e-05
5.043250e-08
8.619464e-08
4.089089e-08
3.347181e-08
0.000000e+00
1.533850e-07
1.956159e-07
1.366848e-07
1.207317e-07
2.872558e-07
3.437116e-07
2.643471e-07
2.430225e-07
4.607491e-07
5.360946e-07
4.342222e-07
4.100554e-07
6.778960e-07
7.742661e-07
6.494583e-07
6.239302e-07
9.398246e-07
1.057950e-06
9.104842e-07
8.844044e-07
1.246208e-06
1.386104e-06
1.216562e-06
1.190385e-06
1.596033e-06
1.757339e-06
1.566443e-06
1.540437e-06
1.987950e-06
2.170107e-06
1.958645e-06
1.932974e-06
2.420443e-06
2.622778e-06
2.391572e-06
2.366342e-06
2.891905e-06
3.113674e-06
2.863567e-06
2.838847e-06
3.400676e-06
3.641097e-06
3.372940e-06
3.348779e-06
3.945069e-06
4.203330e-06
3.917984e-06
3.894414e-06
4.523377e-06
4.798650e-06
4.496976e-06
4.474021e-06
5.133883e-06
5.425327e-06
5.108191e-06
5.085868e-06
5.774860e-06
6.081626e-06
5.749897e-06
5.728217e-06
6.444579e-06
6.765812e-06
6.420356e-06
6.399330e-06
7.141306e-06
7.476146e-06
7.117834e-06
7.097466e-06
7.863305e-06
8.210888e-06
7.840589e-06
7.820885e-06
8.608837e-06
8.968299e-06
8.586883e-06
8.567845e-06
9.376165e-06
9.746636e-06
9.354975e-06
9.336604e-06
1.016355e-05
1.054416e-05
1.014312e-05
1.012542e-05
1.096924e-05
1.135913e-05
1.094959e-05
1.093255e-05
1.179151e-05
1.218980e-05
1.177262e-05
1.175625e-05
1.262861e-05
1.303442e-05
1.261049e-05
1.259478e-05
1.347880e-05
1.389127e-05
1.346144e-05
1.344640e-05
1.434034e-05
1.475859e-05
1.432374e-05
1.430936e-05
1.521149e-05
1.563464e-05
1.519565e-05
1.518192e-05
1.609049e-05
1.651768e-05
1.607541e-05
1.606234e-05
1.697562e-05
1.740596e-05
1.696129e-05
1.694887e-05
1.786511e-05
1.829774e-05
1.785152e-05
1.783976e-05
1.875759e-05
1.919250e-05
1.874469e-05
1.873351e-05
6.239921e-08
2.711204e-08
2.137472e-08
0.000000e+00
1.589697e-07
1.056801e-07
9.181593e-08
3.000843e-07
2.236098e-07
2.065335e-07
4.891269e-07
3.885966e-07
3.702313e-07
7.258904e-07
6.016105e-07
5.828025e-07
1.009205e-06
8.618234e-07
8.429699e-07
1.337575e-06
1.167863e-06
1.149168e-06
1.709378e-06
1.518157e-06
1.499734e-06
2.122932e-06
1.911048e-06
1.892964e-06
2.576529e-06
2.344838e-06
2.327136e-06
3.068448e-06
2.817812e-06
2.800520e-06
3.596959e-06
3.328244e-06
3.311379e-06
4.160326e-06
3.874400e-06
3.857976e-06
4.756813e-06
4.454544e-06
4.438571e-06
5.384679e-06
5.066938e-06
5.051422e-06
6.042185e-06
5.709842e-06
5.694786e-06
6.727589e-06
6.381515e-06
6.366923e-06
7.439150e-06
7.080215e-06
7.066089e-06
8.175124e-06
7.804200e-06
7.790540e-06
8.933769e-06
8.551727e-06
8.538535e-06
9.713342e-06
9.321054e-06
9.308329e-06
1.051210e-05
1.011044e-05
1.009818e-05
1.132830e-05
1.091814e-05
1.090634e-05
1.216020e-05
1.174240e-05
1.173108e-05
1.300606e-05
1.258150e-05
1.257063e-05
1.386413e-05
1.343368e-05
1.342328e-05
1.473267e-05
1.429720e-05
1.428726e-05
1.560993e-05
1.517032e-05
1.516083e-05
1.649418e-05
1.605129e-05
1.604226e-05
1.738365e-05
1.693838e-05
1.692980e-05
1.827666e-05
1.782982e-05
1.782170e-05
1.917192e-05
1.872406e-05
1.871632e-05
4.183062e-08
1.602611e-08
1.101470e-08
0.000000e+00
1.296679e-07
7.962071e-08
6.977968e-08
2.675777e-07
1.923128e-07
1.815344e-07
4.555015e-07
3.553660e-07
3.443956e-07
6.920514e-07
5.677999e-07
5.568665e-07
9.755900e-07
8.280543e-07
8.172575e-07
1.304417e-06
1.134452e-06
1.123842e-06
1.676811e-06
1.485278e-06
1.474883e-06
2.091038e-06
1.878806e-06
1.868641e-06
2.545361e-06
2.313298e-06
2.303376e-06
3.038041e-06
2.787017e-06
2.777344e-06
3.567336e-06
3.298223e-06
3.288803e-06
4.131505e-06
3.845172e-06
3.836010e-06
4.728804e-06
4.426124e-06
4.417221e-06
5.357492e-06
5.039335e-06
5.030692e-06
6.015824e-06
5.683063e-06
5.674681e-06
6.702057e-06
6.355564e-06
6.347444e-06
7.414449e-06
7.055094e-06
7.047237e-06
8.151255e-06
7.779911e-06
7.772316e-06
8.910732e-06
8.528271e-06
8.520937e-06
9.691137e-06
9.298429e-06
9.291357e-06
1.049073e-05
1.008864e-05
1.008183e-05
1.130775e-05
1.089717e-05
1.089062e-05
1.214048e-05
1.172227e-05
1.171597e-05
1.298716e-05
1.256219e-05
1.255615e-05
1.384604e-05
1.341519e-05
1.340941e-05
1.471540e-05
1.427952e-05
1.427400e-05
1.559347e-05
1.515346e-05
1.514819e-05
1.647852e-05
1.603524e-05
1.603022e-05
1.736882e-05
1.692313e-05
1.691836e-05
1.826264e-05
1.781540e-05
1.781089e-05
1.915800e-05
1.871029e-05
1.870598e-05
2.735501e-08
6.513329e-09
4.091090e-09
0.000000e+00
1.124670e-07
6.321063e-08
6.085898e-08
2.499006e-07
1.747705e-07
1.724538e-07
4.378328e-07
3.376574e-07
3.353809e-07
6.745807e-07
5.502132e-07
5.479771e-07
9.584090e-07
8.107191e-07
8.085272e-07
1.287575e-06
1.117434e-06
1.115290e-06
1.660337e-06
1.468616e-06
1.466521e-06
2.074950e-06
1.862521e-06
1.860476e-06
2.529671e-06
2.297406e-06
2.295413e-06
3.022757e-06
2.771528e-06
2.769586e-06
3.552463e-06
3.283142e-06
3.281252e-06
4.117047e-06
3.830505e-06
3.828668e-06
4.714763e-06
4.411873e-06
4.410088e-06
5.343869e-06
5.025502e-06
5.023771e-06
6.002621e-06
5.669649e-06
5.667970e-06
6.689275e-06
6.342570e-06
6.340944e-06
7.402086e-06
7.042520e-06
7.040947e-06
8.139312e-06
7.767757e-06
7.766236e-06
8.899208e-06
8.516536e-06
8.515068e-06
9.680031e-06
9.287113e-06
9.285698e-06
1.048004e-05
1.007774e-05
1.007638e-05
1.129748e-05
1.088669e-05
1.088538e-05
1.213062e-05
1.171220e-05
1.171094e-05
1.297771e-05
1.255253e-05
1.255132e-05
1.383701e-05
1.340594e-05
1.340479e-05
1.470677e-05
1.427069e-05
1.426958e-05
1.558525e-05
1.514503e-05
1.514397e-05
1.647070e-05
1.602721e-05
1.602621e-05
1.736141e-05
1.691551e-05
1.691456e-05
1.825565e-05
1.780819e-05
1.780729e-05
1.915098e-05
1.870340e-05
1.870254e-05
2.729573e-08
6.572180e-09
1.108765e-08
0.000000e+00
1.124315e-07
6.315531e-08
6.966749e-08
2.498908e-07
1.747498e-07
1.814973e-07
4.378254e-07
3.376480e-07
3.443774e-07
6.745742e-07
5.502054e-07
5.568509e-07
9.584034e-07
8.107122e-07
8.172438e-07
1.287571e-06
1.117428e-06
1.123830e-06
1.660333e-06
1.468611e-06
1.474872e-06
2.074946e-06
1.862517e-06
1.868632e-06
2.529668e-06
2.297402e-06
2.303367e-06
3.022754e-06
2.771524e-06
2.777336e-06
3.552461e-06
3.283138e-06
3.288796e-06
4.117045e-06
3.830502e-06
3.836003e-06
4.714761e-06
4.411870e-06
4.417215e-06
5.343868e-06
5.025499e-06
5.030687e-06
6.002620e-06
5.669647e-06
5.674676e-06
6.689273e-06
6.342567e-06
6.347439e-06
7.402085e-06
7.042518e-06
7.047232e-06
8.139311e-06
7.767755e-06
7.772311e-06
8.899207e-06
8.516534e-06
8.520933e-06
9.680030e-06
9.287111e-06
9.291353e-06
1.048003e-05
1.007774e-05
1.008183e-05
1.129748e-05
1.088669e-05
1.089062e-05
1.213062e-05
1.171220e-05
1.171597e-05
1.297771e-05
1.255253e-05
1.255615e-05
1.383701e-05
1.340594e-05
1.340940e-05
1.470677e-05
1.427069e-05
1.427400e-05
1.558525e-05
1.514503e-05
1.514818e-05
1.647070e-05
1.602721e-05
1.603022e-05
1.736141e-05
1.691551e-05
1.691836e-05
1.825564e-05
1.780819e-05
1.781089e-05
1.915098e-05
1.870340e-05
1.870599e-05
4.166793e-08
1.612613e-08
2.147967e-08
0.000000e+00
1.295918e-07
7.946075e-08
9.160858e-08
2.675523e-07
1.922656e-07
2.064829e-07
4.554807e-07
3.553395e-07
3.701973e-07
6.920331e-07
5.677767e-07
5.827716e-07
9.755744e-07
8.280337e-07
8.429423e-07
1.304404e-06
1.134434e-06
1.149144e-06
1.676800e-06
1.485262e-06
1.499712e-06
2.091028e-06
1.878791e-06
1.892944e-06
2.545353e-06
2.313285e-06
2.327118e-06
3.038034e-06
2.787006e-06
2.800504e-06
3.567330e-06
3.298212e-06
3.311365e-06
4.131499e-06
3.845162e-06
3.857963e-06
4.728799e-06
4.426115e-06
4.438558e-06
5.357487e-06
5.039327e-06
5.051410e-06
6.015820e-06
5.683055e-06
5.694775e-06
6.702054e-06
6.355556e-06
6.366912e-06
7.414446e-06
7.055087e-06
7.066079e-06
8.151252e-06
7.779904e-06
7.790531e-06
8.910730e-06
8.528264e-06
8.538526e-06
9.691135e-06
9.298423e-06
9.308320e-06
1.049072e-05
1.008864e-05
1.009817e-05
1.130775e-05
1.089716e-05
1.090633e-05
1.214048e-05
1.172226e-05
1.173107e-05
1.298716e-05
1.256218e-05
1.257063e-05
1.384604e-05
1.341518e-05
1.342327e-05
1.471540e-05
1.427952e-05
1.428725e-05
1.559347e-05
1.515345e-05
1.516083e-05
1.647852e-05
1.603523e-05
1.604225e-05
1.736882e-05
1.692312e-05
1.692979e-05
1.826263e-05
1.781538e-05
1.782169e-05
1.915801e-05
1.871030e-05
1.871632e-05
6.205013e-08
2.721307e-08
3.346484e-08
0.000000e+00
1.589101e-07
1.054589e-07
1.205730e-07
3.000514e-07
2.235594e-07
2.429748e-07
4.890978e-07
3.885552e-07
4.100062e-07
7.258648e-07
6.015718e-07
6.238830e-07
1.009184e-06
8.617884e-07
8.843613e-07
1.337558e-06
1.167832e-06
1.190346e-06
1.709363e-06
1.518130e-06
1.540402e-06
2.122920e-06
1.911023e-06
1.932943e-06
2.576519e-06
2.344815e-06
2.366313e-06
3.068440e-06
2.817791e-06
2.838820e-06
3.596952e-06
3.328224e-06
3.348754e-06
4.160321e-06
3.874382e-06
3.894390e-06
4.756808e-06
4.454527e-06
4.473999e-06
5.384676e-06
5.066922e-06
5.085847e-06
6.042183e-06
5.709827e-06
5.728197e-06
6.727587e-06
6.381501e-06
6.399311e-06
7.439148e-06
7.080201e-06
7.097448e-06
8.175123e-06
7.804187e-06
7.820867e-06
8.933768e-06
8.551715e-06
8.567828e-06
9.713342e-06
9.321042e-06
9.336587e-06
1.051210e-05
1.011043e-05
1.012540e-05
1.132830e-05
1.091812e-05
1.093254e-05
1.216020e-05
1.174239e-05
1.175624e-05
1.300606e-05
1.258149e-05
1.259477e-05
1.386413e-05
1.343367e-05
1.344639e-05
1.473267e-05
1.429719e-05
1.430935e-05
1.560993e-05
1.517031e-05
1.518191e-05
1.649418e-05
1.605129e-05
1.606233e-05
1.738366e-05
1.693837e-05
1.694886e-05
1.827664e-05
1.782980e-05
1.783974e-05
1.917195e-05
1.872406e-05
1.873351e-05
8.590382e-08
4.052186e-08
4.894007e-08
0.000000e+00
1.955961e-07
1.366612e-07
1.534963e-07
3.436792e-07
2.642965e-07
2.871991e-07
5.360643e-07
4.341654e-07
4.606846e-07
7.742403e-07
6.494025e-07
6.778319e-07
1.057930e-06
9.104327e-07
9.397652e-07
1.386089e-06
1.216515e-06
1.246154e-06
1.757328e-06
1.566400e-06
1.595983e-06
2.170100e-06
1.958606e-06
1.987904e-06
2.622773e-06
2.391536e-06
2.420400e-06
3.113672e-06
2.863533e-06
2.891864e-06
3.641097e-06
3.372909e-06
3.400637e-06
4.203332e-06
3.917953e-06
3.945032e-06
4.798653e-06
4.496948e-06
4.523342e-06
5.425331e-06
5.108164e-06
5.133849e-06
6.081632e-06
5.749870e-06
5.774828e-06
6.765819e-06
6.420331e-06
6.444548e-06
7.476153e-06
7.117809e-06
7.141276e-06
8.210896e-06
7.840566e-06
7.863276e-06
8.968308e-06
8.586861e-06
8.608809e-06
9.746646e-06
9.354953e-06
9.376137e-06
1.054417e-05
1.014310e-05
1.016352e-05
1.135914e-05
1.094957e-05
1.096922e-05
1.218981e-05
1.177260e-05
1.179149e-05
1.303444e-05
1.261047e-05
1.262859e-05
1.389128e-05
1.346142e-05
1.347878e-05
1.475860e-05
1.432372e-05
1.434032e-05
1.563465e-05
1.519563e-05
1.521146e-05
1.651769e-05
1.607539e-05
1.609047e-05
1.740597e-05
1.696127e-05
1.697560e-05
1.829774e-05
1.785150e-05
1.786509e-05
1.919257e-05
1.874467e-05
1.875757e-05

VECTORS Applied_Force float
0.000000e+00 0.000000e+00 0.000000e+00
0.000000e+00 0.000000e+00 0.000000e+00
0.000000e+00 0.000000e+00 0.000000e+00
0.000000e+00 0.000000e+00 0.000000e+00
0.000000e+00 0.000000e+00 0.000000e+00
0.000000e+00 0.000000e+00 0.000000e+00
0.000000e+00 0.000000e+00 0.000000e+00
0.000000e+00 0.000000e+00 0.000000e+00
0.000000e+00 0.000000e+00 0.000000e+00
0.000000e+00 0.000000e+00 0.000000e+00
0.000000e+00 0.000000e+00 0.000000e+00
0.000000e+00 0.000000e+00 0.000000e+00
0.000000e+00 0.000000e+00 0.000000e+00
0.000000e+00 0.000000e+00 0.000000e+00
0.000000e+00 0.000000e+00 0.000000e+00
0.000000e+00 0.000000e+00 0.000000e+00
0.000000e+00 0.000000e+00 0.000000e+00
0.000000e+00 0.000000e+00 0.000000e+00
0.000000e+00 0.000000e+00 0.000000e+00
0.000000e+00 0.000000e+00 0.000000e+00
0.000000e+00 0.000000e+00 0.000000e+00
0.000000e+00 0.000000e+00 0.000000e+00
0.000000e+00 0.000000e+00 0.000000e+00
0.000000e+00 0.000000e+00 0.000000e+00
0.000000e+00 0.000000e+00 0.000000e+00
0.000000e+00 0.000000e+00 0.000000e+00
0.000000e+00 0.000000e+00 0.000000e+00
0.000000e+00 0.000000e+00 0.000000e+00
0.000000e+00 0.000000e+00 0.000000e+00
0.000000e+00 0.000000e+00 0.000000e+00
0.000000e+00 0.000000e+00 0.000000e+00
0.000000e+00 0.000000e+00 0.000000e+00
0.000000e+00 -2.083333e+01 0.000000e+00
0.000000e+00 0.000000e+00 0.000000e+00
0.000000e+00 0.000000e+00 0.000000e+00
0.000000e+00 0.000000e+00 0.000000e+00
0.000000e+00 0.000000e+00 0.000000e+00
0.000000e+00 0.000000e+00 0.000000e+00
0.000000e+00 0.000000e+00 0.000000e+00
0.000000e+00 0.000000e+00 0.000000e+00
0.000000e+00 0.000000e+00 0.000000e+00
0.000000e+00 0.000000e+00 0.000000e+00
0.000000e+00 0.000000e+00 0.000000e+00
0.000000e+00 0.000000e+00 0.000000e+00
0.000000e+00 0.000000e+00 0.000000e+00
0.000000e+00 0.000000e+00 0.000000e+00
0.000000e+00 0.000000e+00 0.000000e+00
0.000000e+00 0.000000e+00 0.000000e+00
0.000000e+00 0.000000e+00 0.000000e+00
0.000000e+00 0.000000e+00 0.000000e+00
0.000000e+00 0.000000e+00 0.000000e+00
0.000000e+00 0.000000e+00 0.000000e+00
0.000000e+00 0.000000e+00 0.000000e+00
0.000000e+00 0.000000e+00 0.000000e+00
0.000000e+00 0.000000e+00 0.000000e+00
0.000000e+00 0.000000e+00 0.000000e+00
0.000000e+00 0.000000e+00 0.000000e+00
0.000000e+00 0.000000e+00 0.000000e+00
0.000000e+00 0.000000e+00 0.000000e+00
0.000000e+00 0.000000e+00 0.000000e+00
0.000000e+00 0.000000e+00 0.000000e+00
0.000000e+00 0.000000e+00 0.000000e+00
0.000000e+00 0.000000e+00 0.000000e+00
0.000000e+00 0.000000e+00 0.000000e+00
0.000000e+00 0.000000e+00 0.000000e+00
0.000000e+00 -4.166667e+01 0.000000e+00
0.000000e+00 0.000000e+00 0.000000e+00
0.000000e+00 0.000000e+00 0.000000e+00
0.000000e+00 0.000000e+00 0.000000e+00
0.000000e+00 0.000000e+00 0.000000e+00
0.000000e+00 0.000000e+00 0.000000e+00
0.000000e+00 0.000000e+00 0.000000e+00
0.000000e+00 0.000000e+00 0.000000e+00
0.000000e+00 0.000000e+00 0.000000e+00
0.000000e+00 0.000000e+00 0.000000e+00
0.000000e+00 0.000000e+00 0.000000e+00
0.000000e+00 0.000000e+00 0.000000e+00
0.000000e+00 0.000000e+00 0.000000e+00
0.000000e+00 0.000000e+00 0.000000e+00
0.000000e+00 0.000000e+00 0.000000e+00
0.000000e+00 0.000000e+00 0.000000e+00
0.000000e+00 0.000000e+00 0.000000e+00
0.000000e+00 0.000000e+00 0.000000e+00
0.000000e+00 0.000000e+00 0.000000e+00
0.000000e+00 0.000000e+00 0.000000e+00
0.000000e+00 0.000000e+00 0.000000e+00
0.000000e+00 0.000000e+00 0.000000e+00
0.000000e+00 0.000000e+00 0.000000e+00
0.000000e+00 0.000000e+00 0.000000e+00
0.000000e+00 0.000000e+00 0.000000e+00
0.000000e+00 0.000000e+00 0.000000e+00
0.000000e+00 0.000000e+00 0.000000e+00
0.000000e+00 0.000000e+00 0.000000e+00
0.000000e+00 0.000000e+00 0.000000e+00
0.000000e+00 0.000000e+00 0.000000e+00
0.000000e+00 0.000000e+00 0.000000e+00
0.000000e+00 0.000000e+00 0.000000e+00
0.000000e+00 0.000000e+00 0.000000e+00
0.000000e+00 -4.166667e+01 0.000000e+00
0.000000e+00 0.000000e+00 0.000000e+00
0.000000e+00 0.000000e+00 0.000000e+00
0.000000e+00 0.000000e+00 0.000000e+00
0.000000e+00 0.000000e+00 0.000000e+00
0.000000e+00 0.000000e+00 0.000000e+00
0.000000e+00 0.000000e+00 0.000000e+00
0.000000e+00 0.000000e+00 0.000000e+00
0.000000e+00 0.000000e+00 0.000000e+00
0.000000e+00 0.000000e+00 0.000000e+00
0.000000e+00 0.000000e+00 0.000000e+00
0.000000e+00 0.000000e+00 0.000000e+00
0.000000e+00 0.000000e+00 0.000000e+00
0.000000e+00 0.000000e+00 0.000000e+00
0.000000e+00 0.000000e+00 0.000000e+00
0.000000e+00 0.000000e+00 0.000000e+00
0.000000e+00 0.000000e+00 0.000000e+00
0.000000e+00 0.000000e+00 0.000000e+00
0.000000e+00 0.000000e+00 0.000000e+00
0.000000e+00 0.000000e+00 0.000000e+00
0.000000e+00 0.000000e+00 0.000000e+00
0.000000e+00 0.000000e+00 0.000000e+00
0.000000e+00 0.000000e+00 0.000000e+00
0.000000e+00 0.000000e+00 0.000000e+00
0.000000e+00 0.000000e+00 0.000000e+00
0.000000e+00 0.000000e+00 0.000000e+00
0.000000e+00 0.000000e+00 0.000000e+00
0.000000e+00 0.000000e+00 0.000000e+00
0.000000e+00 0.000000e+00 0.000000e+00
0.000000e+00 0.000000e+00 0.000000e+00
0.000000e+00 0.000000e+00 0.000000e+00
0.000000e+00 0.000000e+00 0.000000e+00
0.000000e+00 0.000000e+00 0.000000e+00
0.000000e+00 -4.166667e+01 0.000000e+00
0.000000e+00 0.000000e+00 0.000000e+00
0.000000e+00 0.000000e+00 0.000000e+00
0.000000e+00 0.000000e+00 0.000000e+00
0.000000e+00 0.000000e+00 0.000000e+00
0.000000e+00 0.000000e+00 0.000000e+00
0.000000e+00 0.000000e+00 0.000000e+00
0.000000e+00 0.000000e+00 0.000000e+00
0.000000e+00 0.000000e+00 0.000000e+00
0.000000e+00 0.000000e+00 0.000000e+00
0.000000e+00 0.000000e+00 0.000000e+00
0.000000e+00 0.000000e+00 0.000000e+00
0.000000e+00 0.000000e+00 0.000000e+00
0.000000e+00 0.000000e+00 0.000000e+00
0.000000e+00 0.000000e+00 0.000000e+00
0.000000e+00 0.000000e+00 0.000000e+00
0.000000e+00 0.000000e+00 0.000000e+00
0.000000e+00 0.000000e+00 0.000000e+00
0.000000e+00 0.000000e+00 0.000000e+00
0.000000e+00 0.000000e+00 0.000000e+00
0.000000e+00 0.000000e+00 0.000000e+00
0.000000e+00 0.000000e+00 0.000000e+00
0.000000e+00 0.000000e+00 0.000000e+00
0.000000e+00 0.000000e+00 0.000000e+00
0.000000e+00 0.000000e+00 0.000000e+00
0.000000e+00 0.000000e+00 0.000000e+00
0.000000e+00 0.000000e+00 0.000000e+00
0.000000e+00 0.000000e+00 0.000000e+00
0.000000e+00 0.000000e+00 0.000000e+00
0.000000e+00 0.000000e+00 0.000000e+00
0.000000e+00 0.000000e+00 0.000000e+00
0.000000e+00 0.000000e+00 0.000000e+00
0.000000e+00 0.000000e+00 0.000000e+00
0.000000e+00 -4.166667e+01 0.000000e+00
0.000000e+00 0.000000e+00 0.000000e+00
0.000000e+00 0.000000e+00 0.000000e+00
0.000000e+00 0.000000e+00 0.000000e+00
0.000000e+00 0.000000e+00 0.000000e+00
0.000000e+00 0.000000e+00 0.000000e+00
0.000000e+00 0.000000e+00 0.000000e+00
0.000000e+00 0.000000e+00 0.000000e+00
0.000000e+00 0.000000e+00 0.000000e+00
0.000000e+00 0.000000e+00 0.000000e+00
0.000000e+00 0.000000e+00 0.000000e+00
0.000000e+00 0.000000e+00 0.000000e+00
0.000000e+00 0.000000e+00 0.000000e+00
0.000000e+00 0.000000e+00 0.000000e+00
0.000000e+00 0.000000e+00 0.000000e+00
0.000000e+00 0.000000e+00 0.000000e+00
0.000000e+00 0.000000e+00 0.000000e+00
0.000000e+00 0.000000e+00 0.000000e+00
0.000000e+00 0.000000e+00 0.000000e+00
0.000000e+00 0.000000e+00 0.000000e+00
0.000000e+00 0.000000e+00 0.000000e+00
0.000000e+00 0.000000e+00 0.000000e+00
0.000000e+00 0.000000e+00 0.000000e+00
0.000000e+00 0.000000e+00 0.000000e+00
0.000000e+00 0.000000e+00 0.000000e+00
0.000000e+00 0.000000e+00 0.000000e+00
0.000000e+00 0.000000e+00 0.000000e+00
0.000000e+00 0.000000e+00 0.000000e+00
0.000000e+00 0.000000e+00 0.000000e+00
0.000000e+00 0.000000e+00 0.000000e+00
0.000000e+00 0.000000e+00 0.000000e+00
0.000000e+00 0.000000e+00 0.000000e+00
0.000000e+00 0.000000e+00 0.000000e+00
0.000000e+00 -4.166667e+01 0.000000e+00
0.000000e+00 0.000000e+00 0.000000e+00
0.000000e+00 0.000000e+00 0.000000e+00
0.000000e+00 0.000000e+00 0.000000e+00
0.000000e+00 0.000000e+00 0.000000e+00
0.000000e+00 0.000000e+00 0.000000e+00
0.000000e+00 0.000000e+00 0.000000e+00
0.000000e+00 0.000000e+00 0.000000e+00
0.000000e+00 0.000000e+00 0.000000e+00
0.000000e+00 0.000000e+00 0.000000e+00
0.000000e+00 0.000000e+00 0.000000e+00
0.000000e+00 0.000000e+00 0.000000e+00
0.000000e+00 0.000000e+00 0.000000e+00
0.000000e+00 0.000000e+00 0.000000e+00
0.000000e+00 0.000000e+00 0.000000e+00
0.000000e+00 0.000000e+00 0.000000e+00
0.000000e+00 0.000000e+00 0.000000e+00
0.000000e+00 0.000000e+00 0.000000e+00
0.000000e+00 0.000000e+00 0.000000e+00
0.000000e+00 0.000000e+00 0.000000e+00
0.000000e+00 0.000000e+00 0.000000e+00
0.000000e+00 0.000000e+00 0.000000e+00
0.000000e+00 0.000000e+00 0.000000e+00
0.000000e+00 0.000000e+00 0.000000e+00
0.000000e+00 0.000000e+00 0.000000e+00
0.000000e+00 0.000000e+00 0.000000e+00
0.000000e+00 0.000000e+00 0.000000e+00
0.000000e+00 0.000000e+00 0.000000e+00
0.000000e+00 0.000000e+00 0.000000e+00
0.000000e+00 0.000000e+00 0.000000e+00
0.000000e+00 0.000000e+00 0.000000e+00
0.000000e+00 0.000000e+00 0.000000e+00
0.000000e+00 0.000000e+00 0.000000e+00
0.000000e+00 -4.166667e+01 0.000000e+00
0.000000e+00 0.000000e+00 0.000000e+00
0.000000e+00 0.000000e+00 0.000000e+00
0.000000e+00 0.000000e+00 0.000000e+00
0.000000e+00 0.000000e+00 0.000000e+00
0.000000e+00 0.000000e+00 0.000000e+00
0.000000e+00 0.000000e+00 0.000000e+00
0.000000e+00 0.000000e+00 0.000000e+00
0.000000e+00 0.000000e+00 0.000000e+00
0.000000e+00 0.000000e+00 0.000000e+00
0.000000e+00 0.000000e+00 0.000000e+00
0.000000e+00 0.000000e+00 0.000000e+00
0.000000e+00 0.000000e+00 0.000000e+00
0.000000e+00 0.000000e+00 0.000000e+00
0.000000e+00 0.000000e+00 0.000000e+00
0.000000e+00 0.000000e+00 0.000000e+00
0.000000e+00 0.000000e+00 0.000000e+00
0.000000e+00 0.000000e+00 0.000000e+00
0.000000e+00 0.000000e+00 0.000000e+00
0.000000e+00 0.000000e+00 0.000000e+00
0.000000e+00 0.000000e+00 0.000000e+00
0.000000e+00 0.000000e+00 0.000000e+00
0.000000e+00 0.000000e+00 0.000000e+00
0.000000e+00 0.000000e+00 0.000000e+00
0.000000e+00 0.000000e+00 0.000000e+00
0.000000e+00 0.000000e+00 0.000000e+00
0.000000e+00 0.000000e+00 0.000000e+00
0.000000e+00 0.000000e+00 0.000000e+00
0.000000e+00 0.000000e+00 0.000000e+00
0.000000e+00 0.000000e+00 0.000000e+00
0.000000e+00 0.000000e+00 0.000000e+00
0.000000e+00 0.000000e+00 0.000000e+00
0.000000e+00 0.000000e+00 0.000000e+00
0.000000e+00 -4.166667e+01 0.000000e+00
0.000000e+00 0.000000e+00 0.000000e+00
0.000000e+00 0.000000e+00 0.000000e+00
0.000000e+00 0.000000e+00 0.000000e+00
0.000000e+00 0.000000e+00 0.000000e+00
0.000000e+00 0.000000e+00 0.000000e+00
0.000000e+00 0.000000e+00 0.000000e+00
0.000000e+00 0.000000e+00 0.000000e+00
0.000000e+00 0.000000e+00 0.000000e+00
0.000000e+00 0.000000e+00 0.000000e+00
0.000000e+00 0.000000e+00 0.000000e+00
0.000000e+00 0.000000e+00 0.000000e+00
0.000000e+00 0.000000e+00 0.000000e+00
0.000000e+00 0.000000e+00 0.000000e+00
0.000000e+00 0.000000e+00 0.000000e+00
0.000000e+00 0.000000e+00 0.000000e+00
0.000000e+00 0.000000e+00 0.000000e+00
0.000000e+00 0.000000e+00 0.000000e+00
0.000000e+00 0.000000e+00 0.000000e+00
0.000000e+00 0.000000e+00 0.000000e+00
0.000000e+00 0.000000e+00 0.000000e+00
0.000000e+00 0.000000e+00 0.000000e+00
0.000000e+00 0.000000e+00 0.000000e+00
0.000000e+00 0.000000e+00 0.000000e+00
0.000000e+00 0.000000e+00 0.000000e+00
0.000000e+00 0.000000e+00 0.000000e+00
0.000000e+00 0.000000e+00 0.000000e+00
0.000000e+00 0.000000e+00 0.000000e+00
0.000000e+00 0.000000e+00 0.000000e+00
0.000000e+00 0.000000e+00 0.000000e+00
0.000000e+00 0.000000e+00 0.000000e+00
0.000000e+00 0.000000e+00 0.000000e+00
0.000000e+00 0.000000e+00 0.000000e+00
0.000000e+00 -2.083333e+01 0.000000e+00
0.000000e+00 0.000000e+00 0.000000e+00
0.000000e+00 0.000000e+00 0.000000e+00
0.000000e+00 0.000000e+00 0.000000e+00
0.000000e+00 0.000000e+00 0.000000e+00
0.000000e+00 0.000000e+00 0.000000e+00
0.000000e+00 0.000000e+00 0.000000e+00
0.000000e+00 0.000000e+00 0.000000e+00
0.000000e+00 0.000000e+00 0.000000e+00
0.000000e+00 0.000000e+00 0.000000e+00
0.000000e+00 0.000000e+00 0.000000e+00
0.000000e+00 0.000000e+00 0.000000e+00
0.000000e+00 0.000000e+00 0.000000e+00
0.000000e+00 0.000000e+00 0.000000e+00
0.000000e+00 0.000000e+00 0.000000e+00
0.000000e+00 0.000000e+00 0.000000e+00
0.000000e+00 0.000000e+00 0.000000e+00
0.000000e+00 0.000000e+00 0.000000e+00
0.000000e+00 0.000000e+00 0.000000e+00
0.000000e+00 0.000000e+00 0.000000e+00
0.000000e+00 0.000000e+00 0.000000e+00
0.000000e+00 0.000000e+00 0.000000e+00
0.000000e+00 0.000000e+00 0.000000e+00
0.000000e+00 0.000000e+00 0.000000e+00
0.000000e+00 0.000000e+00 0.000000e+00
0.000000e+00 0.000000e+00 0.000000e+00
0.000000e+00 0.000000e+00 0.000000e+00
0.000000e+00 0.000000e+00 0.000000e+00
0.000000e+00 0.000000e+00 0.000000e+00
0.000000e+00 0.000000e+00 0.000000e+00
0.000000e+00 0.000000e+00 0.000000e+00
0.000000e+00 0.000000e+00 0.000000e+00
0.000000e+00 0.000000e+00 0.000000e+00
0.000000e+00 0.000000e+00 0.000000e+00
0.000000e+00 0.000000e+00 0.000000e+00
0.000000e+00 0.000000e+00 0.000000e+00
0.000000e+00 0.000000e+00 0.000000e+00
0.000000e+00 0.000000e+00 0.000000e+00
0.000000e+00 0.000000e+00 0.000000e+00
0.000000e+00 0.000000e+00 0.000000e+00
0.000000e+00 0.000000e+00 0.000000e+00
0.000000e+00 0.000000e+00 0.000000e+00
0.000000e+00 0.000000e+00 0.000000e+00
0.000000e+00 0.000000e+00 0.000000e+00
0.000000e+00 0.000000e+00 0.000000e+00
0.000000e+00 0.000000e+00 0.000000e+00
0.000000e+00 0.000000e+00 0.000000e+00
0.000000e+00 0.000000e+00 0.000000e+00
0.000000e+00 0.000000e+00 0.000000e+00
0.000000e+00 0.000000e+00 0.000000e+00
0.000000e+00 0.000000e+00 0.000000e+00
0.000000e+00 0.000000e+00 0.000000e+00
0.000000e+00 0.000000e+00 0.000000e+00
0.000000e+00 0.000000e+00 0.000000e+00
0.000000e+00 0.000000e+00 0.000000e+00
0.000000e+00 0.000000e+00 0.000000e+00
0.000000e+00 0.000000e+00 0.000000e+00
0.000000e+00 0.000000e+00 0.000000e+00
0.000000e+00 0.000000e+00 0.000000e+00
0.000000e+00 0.000000e+00 0.000000e+00
0.000000e+00 0.000000e+00 0.000000e+00
0.000000e+00 0.000000e+00 0.000000e+00
0.000000e+00 0.000000e+00 0.000000e+00
0.000000e+00 0.000000e+00 0.000000e+00
0.000000e+00 0.000000e+00 0.000000e+00
0.000000e+00 0.000000e+00 0.000000e+00
0.000000e+00 0.000000e+00 0.000000e+00
0.000000e+00 0.000000e+00 0.000000e+00
0.000000e+00 0.000000e+00 0.000000e+00
0.000000e+00 0.000000e+00 0.000000e+00
0.000000e+00 0.000000e+00 0.000000e+00
0.000000e+00 0.000000e+00 0.000000e+00
0.000000e+00 0.000000e+00 0.000000e+00
0.000000e+00 0.000000e+00 0.000000e+00
0.000000e+00 0.000000e+00 0.000000e+00
0.000000e+00 0.000000e+00 0.000000e+00
0.000000e+00 0.000000e+00 0.000000e+00
0.000000e+00 0.000000e+00 0.000000e+00
0.000000e+00 0.000000e+00 0.000000e+00
0.000000e+00 0.000000e+00 0.000000e+00
0.000000e+00 0.000000e+00 0.000000e+00
0.000000e+00 0.000000e+00 0.000000e+00
0.000000e+00 0.000000e+00 0.000000e+00
0.000000e+00 0.000000e+00 0.000000e+00
0.000000e+00 0.000000e+00 0.000000e+00
0.000000e+00 0.000000e+00 0.000000e+00
0.000000e+00 0.000000e+00 0.000000e+00
0.000000e+00 0.000000e+00 0.000000e+00
0.000000e+00 0.000000e+00 0.000000e+00
0.000000e+00 0.000000e+00 0.000000e+00
0.000000e+00 0.000000e+00 0.000000e+00
0.000000e+00 0.000000e+00 0.000000e+00
0.000000e+00 0.000000e+00 0.000000e+00
0.000000e+00 0.000000e+00 0.000000e+00
0.000000e+00 0.000000e+00 0.000000e+00
0.000000e+00 0.000000e+00 0.000000e+00
0.000000e+00 0.000000e+00 0.000000e+00
0.000000e+00 0.000000e+00 0.000000e+00
0.000000e+00 0.000000e+00 0.000000e+00
0.000000e+00 0.000000e+00 0.000000e+00
0.000000e+00 0.000000e+00 0.000000e+00
0.000000e+00 0.000000e+00 0.000000e+00
0.000000e+00 0.000000e+00 0.000000e+00
0.000000e+00 0.000000e+00 0.000000e+00
0.000000e+00 0.000000e+00 0.000000e+00
0.000000e+00 0.000000e+00 0.000000e+00
0.000000e+00 0.000000e+00 0.000000e+00
0.000000e+00 0.000000e+00 0.000000e+00
0.000000e+00 0.000000e+00 0.000000e+00
0.000000e+00 0.000000e+00 0.000000e+00
0.000000e+00 0.000000e+00 0.000000e+00
0.000000e+00 0.000000e+00 0.000000e+00
0.000000e+00 0.000000e+00 0.000000e+00
0.000000e+00 0.000000e+00 0.000000e+00
0.000000e+00 0.000000e+00 0.000000e+00
0.000000e+00 0.000000e+00 0.000000e+00
0.000000e+00 0.000000e+00 0.000000e+00
0.000000e+00 0.000000e+00 0.000000e+00
0.000000e+00 0.000000e+00 0.000000e+00
0.000000e+00 0.000000e+00 0.000000e+00
0.000000e+00 0.000000e+00 0.000000e+00
0.000000e+00 0.000000e+00 0.000000e+00
0.000000e+00 0.000000e+00 0.000000e+00
0.000000e+00 0.000000e+00 0.000000e+00
0.000000e+00 0.000000e+00 0.000000e+00
0.000000e+00 0.000000e+00 0.000000e+00
0.000000e+00 0.000000e+00 0.000000e+00
0.000000e+00 -8.333333e+01 0.000000e+00
0.000000e+00 0.000000e+00 0.000000e+00
0.000000e+00 0.000000e+00 0.000000e+00
0.000000e+00 0.000000e+00 0.000000e+00
0.000000e+00 0.000000e+00 0.000000e+00
0.000000e+00 0.000000e+00 0.000000e+00
0.000000e+00 0.000000e+00 0.000000e+00
0.000000e+00 0.000000e+00 0.000000e+00
0.000000e+00 0.000000e+00 0.000000e+00
0.000000e+00 0.000000e+00 0.000000e+00
0.000000e+00 0.000000e+00 0.000000e+00
0.000000e+00 0.000000e+00 0.000000e+00
0.000000e+00 0.000000e+00 0.000000e+00
0.000000e+00 0.000000e+00 0.000000e+00
0.000000e+00 0.000000e+00 0.000000e+00
0.000000e+00 0.000000e+00 0.000000e+00
0.000000e+00 0.000000e+00 0.000000e+00
0.000000e+00 0.000000e+00 0.000000e+00
0.000000e+00 0.000000e+00 0.000000e+00
0.000000e+00 0.000000e+00 0.000000e+00
0.000000e+00 0.000000e+00 0.000000e+00
0.000000e+00 0.000000e+00 0.000000e+00
0.000000e+00 0.000000e+00 0.000000e+00
0.000000e+00 0.000000e+00 0.000000e+00
0.000000e+00 0.000000e+00 0.000000e+00
0.000000e+00 0.000000e+00 0.000000e+00
0.000000e+00 0.000000e+00 0.000000e+00
0.000000e+00 0.000000e+00 0.000000e+00
0.000000e+00 0.000000e+00 0.000000e+00
0.000000e+00 0.000000e+00 0.000000e+00
0.000000e+00 0.000000e+00 0.000000e+00
0.000000e+00 0.000000e+00 0.000000e+00
0.000000e+00 0.000000e+00 0.000000e+00
0.000000e+00 0.000000e+00 0.000000e+00
0.000000e+00 0.000000e+00 0.000000e+00
0.000000e+00 0.000000e+00 0.000000e+00
0.000000e+00 0.000000e+00 0.000000e+00
0.000000e+00 0.000000e+00 0.000000e+00
0.000000e+00 0.000000e+00 0.000000e+00
0.000000e+00 0.000000e+00 0.000000e+00
0.000000e+00 0.000000e+00 0.000000e+00
0.000000e+00 0.000000e+00 0.000000e+00
0.000000e+00 0.000000e+00 0.000000e+00
0.000000e+00 0.000000e+00 0.000000e+00
0.000000e+00 0.000000e+00 0.000000e+00
0.000000e+00 0.000000e+00 0.000000e+00
0.000000e+00 0.000000e+00 0.000000e+00
0.000000e+00 0.000000e+00 0.000000e+00
0.000000e+00 0.000000e+00 0.000000e+00
0.000000e+00 0.000000e+00 0.000000e+00
0.000000e+00 0.000000e+00 0.000000e+00
0.000000e+00 0.000000e+00 0.000000e+00
0.000000e+00 0.000000e+00 0.000000e+00
0.000000e+00 0.000000e+00 0.000000e+00
0.000000e+00 0.000000e+00 0.000000e+00
0.000000e+00 0.000000e+00 0.000000e+00
0.000000e+00 0.000000e+00 0.000000e+00
0.000000e+00 0.000000e+00 0.000000e+00
0.000000e+00 0.000000e+00 0.000000e+00
0.000000e+00 0.000000e+00 0.000000e+00
0.000000e+00 0.000000e+00 0.000000e+00
0.000000e+00 0.000000e+00 0.000000e+00
0.000000e+00 0.000000e+00 0.000000e+00
0.000000e+00 0.000000e+00 0.000000e+00
0.000000e+00 0.000000e+00 0.000000e+00
0.000000e+00 0.000000e+00 0.000000e+00
0.000000e+00 0.000000e+00 0.000000e+00
0.000000e+00 0.000000e+00 0.000000e+00
0.000000e+00 0.000000e+00 0.000000e+00
0.000000e+00 0.000000e+00 0.000000e+00
0.000000e+00 0.000000e+00 0.000000e+00
0.000000e+00 0.000000e+00 0.000000e+00
0.000000e+00 0.000000e+00 0.000000e+00
0.000000e+00 0.000000e+00 0.000000e+00
0.000000e+00 0.000000e+00 0.000000e+00
0.000000e+00 0.000000e+00 0.000000e+00
0.000000e+00 0.000000e+00 0.000000e+00
0.000000e+00 0.000000e+00 0.000000e+00
0.000000e+00 0.000000e+00 0.000000e+00
0.000000e+00 0.000000e+00 0.000000e+00
0.000000e+00 0.000000e+00 0.000000e+00
0.000000e+00 0.000000e+00 0.000000e+00
0.000000e+00 0.000000e+00 0.000000e+00
0.000000e+00 0.000000e+00 0.000000e+00
0.000000e+00 0.000000e+00 0.000000e+00
0.000000e+00 0.000000e+00 0.000000e+00
0.000000e+00 0.000000e+00 0.000000e+00
0.000000e+00 0.000000e+00 0.000000e+00
0.000000e+00 0.000000e+00 0.000000e+00
0.000000e+00 0.000000e+00 0.000000e+00
0.000000e+00 0.000000e+00 0.000000e+00
0.000000e+00 0.000000e+00 0.000000e+00
0.000000e+00 0.000000e+00 0.000000e+00
0.000000e+00 0.000000e+00 0.000000e+00
0.000000e+00 0.000000e+00 0.000000e+00
0.000000e+00 0.000000e+00 0.000000e+00
0.000000e+00 0.000000e+00 0.000000e+00
0.000000e+00 -8.333333e+01 0.000000e+00
0.000000e+00 0.000000e+00 0.000000e+00
0.000000e+00 0.000000e+00 0.000000e+00
0.000000e+00 0.000000e+00 0.000000e+00
0.000000e+00 0.000000e+00 0.000000e+00
0.000000e+00 0.000000e+00 0.000000e+00
0.000000e+00 0.000000e+00 0.000000e+00
0.000000e+00 0.000000e+00 0.000000e+00
0.000000e+00 0.000000e+00 0.000000e+00
0.000000e+00 0.000000e+00 0.000000e+00
0.000000e+00 0.000000e+00 0.000000e+00
0.000000e+00 0.000000e+00 0.000000e+00
0.000000e+00 0.000000e+00 0.000000e+00
0.000000e+00 0.000000e+00 0.000000e+00
0.000000e+00 0.000000e+00 0.000000e+00
0.000000e+00 0.000000e+00 0.000000e+00
0.000000e+00 0.000000e+00 0.000000e+00
0.000000e+00 0.000000e+00 0.000000e+00
0.000000e+00 0.000000e+00 0.000000e+00
0.000000e+00 0.000000e+00 0.000000e+00
0.000000e+00 0.000000e+00 0.000000e+00
0.000000e+00 0.000000e+00 0.000000e+00
0.000000e+00 0.000000e+00 0.000000e+00
0.000000e+00 0.000000e+00 0.000000e+00
0.000000e+00 0.000000e+00 0.000000e+00
0.000000e+00 0.000000e+00 0.000000e+00
0.000000e+00 0.000000e+00 0.000000e+00
0.000000e+00 0.000000e+00 0.000000e+00
0.000000e+00 0.000000e+00 0.000000e+00
0.000000e+00 0.000000e+00 0.000000e+00
0.000000e+00 0.000000e+00 0.000000e+00
0.000000e+00 0.000000e+00 0.000000e+00
0.000000e+00 0.000000e+00 0.000000e+00
0.000000e+00 0.000000e+00 0.000000e+00
0.000000e+00 0.000000e+00 0.000000e+00
0.000000e+00 0.000000e+00 0.000000e+00
0.000000e+00 0.000000e+00 0.000000e+00
0.000000e+00 0.000000e+00 0.000000e+00
0.000000e+00 0.000000e+00 0.000000e+00
0.000000e+00 0.000000e+00 0.000000e+00
0.000000e+00 0.000000e+00 0.000000e+00
0.000000e+00 0.000000e+00 0.000000e+00
0.000000e+00 0.000000e+00 0.000000e+00
0.000000e+00 0.000000e+00 0.000000e+00
0.000000e+00 0.000000e+00 0.000000e+00
0.000000e+00 0.000000e+00 0.000000e+00
0.000000e+00 0.000000e+00 0.000000e+00
0.000000e+00 0.000000e+00 0.000000e+00
0.000000e+00 0.000000e+00 0.000000e+00
0.000000e+00 0.000000e+00 0.000000e+00
0.000000e+00 0.000000e+00 0.000000e+00
0.000000e+00 0.000000e+00 0.000000e+00
0.000000e+00 0.000000e+00 0.000000e+00
0.000000e+00 0.000000e+00 0.000000e+00
0.000000e+00 0.000000e+00 0.000000e+00
0.000000e+00 0.000000e+00 0.000000e+00
0.000000e+00 0.000000e+00 0.000000e+00
0.000000e+00 0.000000e+00 0.000000e+00
0.000000e+00 0.000000e+00 0.000000e+00
0.000000e+00 0.000000e+00 0.000000e+00
0.000000e+00 0.000000e+00 0.000000e+00
0.000000e+00 0.000000e+00 0.000000e+00
0.000000e+00 0.000000e+00 0.000000e+00
0.000000e+00 0.000000e+00 0.000000e+00
0.000000e+00 0.000000e+00 0.000000e+00
0.000000e+00 0.000000e+00 0.000000e+00
0.000000e+00 0.000000e+00 0.000000e+00
0.000000e+00 0.000000e+00 0.000000e+00
0.000000e+00 0.000000e+00 0.000000e+00
0.000000e+00 0.000000e+00 0.000000e+00
0.000000e+00 0.000000e+00 0.000000e+00
0.000000e+00 0.000000e+00 0.000000e+00
0.000000e+00 0.000000e+00 0.000000e+00
0.000000e+00 0.000000e+00 0.000000e+00
0.000000e+00 0.000000e+00 0.000000e+00
0.000000e+00 0.000000e+00 0.000000e+00
0.000000e+00 0.000000e+00 0.000000e+00
0.000000e+00 0.000000e+00 0.000000e+00
0.000000e+00 0.000000e+00 0.000000e+00
0.000000e+00 0.000000e+00 0.000000e+00
0.000000e+00 0.000000e+00 0.000000e+00
0.000000e+00 0.000000e+00 0.000000e+00
0.000000e+00 0.000000e+00 0.000000e+00
0.000000e+00 0.000000e+00 0.000000e+00
0.000000e+00 0.000000e+00 0.000000e+00
0.000000e+00 0.000000e+00 0.000000e+00
0.000000e+00 0.000000e+00 0.000000e+00
0.000000e+00 0.000000e+00 0.000000e+00
0.000000e+00 0.000000e+00 0.000000e+00
0.000000e+00 0.000000e+00 0.000000e+00
0.000000e+00 0.000000e+00 0.000000e+00
0.000000e+00 0.000000e+00 0.000000e+00
0.000000e+00 0.000000e+00 0.000000e+00
0.000000e+00 0.000000e+00 0.000000e+00
0.000000e+00 0.000000e+00 0.000000e+00
0.000000e+00 0.000000e+00 0.000000e+00
0.000000e+00 0.000000e+00 0.000000e+00
0.000000e+00 -8.333333e+01 0.000000e+00
0.000000e+00 0.000000e+00 0.000000e+00
0.000000e+00 0.000000e+00 0.000000e+00
0.000000e+00 0.000000e+00 0.000000e+00
0.000000e+00 0.000000e+00 0.000000e+00
0.000000e+00 0.000000e+00 0.000000e+00
0.000000e+00 0.000000e+00 0.000000e+00
0.000000e+00 0.000000e+00 0.000000e+00
0.000000e+00 0.000000e+00 0.000000e+00
0.000000e+00 0.000000e+00 0.000000e+00
0.000000e+00 0.000000e+00 0.000000e+00
0.000000e+00 0.000000e+00 0.000000e+00
0.000000e+00 0.000000e+00 0.000000e+00
0.000000e+00 0.000000e+00 0.000000e+00
0.000000e+00 0.000000e+00 0.000000e+00
0.000000e+00 0.000000e+00 0.000000e+00
0.000000e+00 0.000000e+00 0.000000e+00
0.000000e+00 0.000000e+00 0.000000e+00
0.000000e+00 0.000000e+00 0.000000e+00
0.000000e+00 0.000000e+00 0.000000e+00
0.000000e+00 0.000000e+00 0.000000e+00
0.000000e+00 0.000000e+00 0.000000e+00
0.000000e+00 0.000000e+00 0.000000e+00
0.000000e+00 0.000000e+00 0.000000e+00
0.000000e+00 0.000000e+00 0.000000e+00
0.000000e+00 0.000000e+00 0.000000e+00
0.000000e+00 0.000000e+00 0.000000e+00
0.000000e+00 0.000000e+00 0.000000e+00
0.000000e+00 0.000000e+00 0.000000e+00
0.000000e+00 0.000000e+00 0.000000e+00
0.000000e+00 0.000000e+00 0.000000e+00
0.000000e+00 0.000000e+00 0.000000e+00
0.000000e+00 0.000000e+00 0.000000e+00
0.000000e+00 0.000000e+00 0.000000e+00
0.000000e+00 0.000000e+00 0.000000e+00
0.000000e+00 0.000000e+00 0.000000e+00
0.000000e+00 0.000000e+00 0.000000e+00
0.000000e+00 0.000000e+00 0.000000e+00
0.000000e+00 0.000000e+00 0.000000e+00
0.000000e+00 0.000000e+00 0.000000e+00
0.000000e+00 0.000000e+00 0.000000e+00
0.000000e+00 0.000000e+00 0.000000e+00
0.000000e+00 0.000000e+00 0.000000e+00
0.000000e+00 0.000000e+00 0.000000e+00
0.000000e+00 0.000000e+00 0.000000e+00
0.000000e+00 0.000000e+00 0.000000e+00
0.000000e+00 0.000000e+00 0.000000e+00
0.000000e+00 0.000000e+00 0.000000e+00
0.000000e+00 0.000000e+00 0.000000e+00
0.000000e+00 0.000000e+00 0.000000e+00
0.000000e+00 0.000000e+00 0.000000e+00
0.000000e+00 0.000000e+00 0.000000e+00
0.000000e+00 0.000000e+00 0.000000e+00
0.000000e+00 0.000000e+00 0.000000e+00
0.000000e+00 0.000000e+00 0.000000e+00
0.000000e+00 0.000000e+00 0.000000e+00
0.000000e+00 0.000000e+00 0.000000e+00
0.000000e+00 0.000000e+00 0.000000e+00
0.000000e+00 0.000000e+00 0.000000e+00
0.000000e+00 0.000000e+00 0.000000e+00
0.000000e+00 0.000000e+00 0.000000e+00
0.000000e+00 0.000000e+00 0.000000e+00
0.000000e+00 0.000000e+00 0.000000e+00
0.000000e+00 0.000000e+00 0.000000e+00
0.000000e+00 0.000000e+00 0.000000e+00
0.000000e+00 0.000000e+00 0.000000e+00
0.000000e+00 0.000000e+00 0.000000e+00
0.000000e+00 0.000000e+00 0.000000e+00
0.000000e+00 0.000000e+00 0.000000e+00
0.000000e+00 0.000000e+00 0.000000e+00
0.000000e+00 0.000000e+00 0.000000e+00
0.000000e+00 0.000000e+00 0.000000e+00
0.000000e+00 0.000000e+00 0.000000e+00
0.000000e+00 0.000000e+00 0.000000e+00
0.000000e+00 0.000000e+00 0.000000e+00
0.000000e+00 0.000000e+00 0.000000e+00
0.000000e+00 0.000000e+00 0.000000e+00
0.000000e+00 0.000000e+00 0.000000e+00
0.000000e+00 0.000000e+00 0.000000e+00
0.000000e+00 0.000000e+00 0.000000e+00
0.000000e+00 0.000000e+00 0.000000e+00
0.000000e+00 0.000000e+00 0.000000e+00
0.000000e+00 0.000000e+00 0.000000e+00
0.000000e+00 0.000000e+00 0.000000e+00
0.000000e+00 0.000000e+00 0.000000e+00
0.000000e+00 0.000000e+00 0.000000e+00
0.000000e+00 0.000000e+00 0.000000e+00
0.000000e+00 0.000000e+00 0.000000e+00
0.000000e+00 0.000000e+00 0.000000e+00
0.000000e+00 0.000000e+00 0.000000e+00
0.000000e+00 0.000000e+00 0.000000e+00
0.000000e+00 0.000000e+00 0.000000e+00
0.000000e+00 0.000000e+00 0.000000e+00
0.000000e+00 0.000000e+00 0.000000e+00
0.000000e+00 0.000000e+00 0.000000e+00
0.000000e+00 0.000000e+00 0.000000e+00
0.000000e+00 0.000000e+00 0.000000e+00
0.000000e+00 -8.333333e+01 0.000000e+00
0.000000e+00 0.000000e+00 0.000000e+00
0.000000e+00 0.000000e+00 0.000000e+00
0.000000e+00 0.000000e+00 0.000000e+00
0.000000e+00 0.000000e+00 0.000000e+00
0.000000e+00 0.000000e+00 0.000000e+00
0.000000e+00 0.000000e+00 0.000000e+00
0.000000e+00 0.000000e+00 0.000000e+00
0.000000e+00 0.000000e+00 0.000000e+00
0.000000e+00 0.000000e+00 0.000000e+00
0.000000e+00 0.000000e+00 0.000000e+00
0.000000e+00 0.000000e+00 0.000000e+00
0.000000e+00 0.000000e+00 0.000000e+00
0.000000e+00 0.000000e+00 0.000000e+00
0.000000e+00 0.000000e+00 0.000000e+00
0.000000e+00 0.000000e+00 0.000000e+00
0.000000e+00 0.000000e+00 0.000000e+00
0.000000e+00 0.000000e+00 0.000000e+00
0.000000e+00 0.000000e+00 0.000000e+00
0.000000e+00 0.000000e+00 0.000000e+00
0.000000e+00 0.000000e+00 0.000000e+00
0.000000e+00 0.000000e+00 0.000000e+00
0.000000e+00 0.000000e+00 0.000000e+00
0.000000e+00 0.000000e+00 0.000000e+00
0.000000e+00 0.000000e+00 0.000000e+00
0.000000e+00 0.000000e+00 0.000000e+00
0.000000e+00 0.000000e+00 0.000000e+00
0.000000e+00 0.000000e+00 0.000000e+00
0.000000e+00 0.000000e+00 0.000000e+00
0.000000e+00 0.000000e+00 0.000000e+00
0.000000e+00 0.000000e+00 0.000000e+00
0.000000e+00 0.000000e+00 0.000000e+00
0.000000e+00 0.000000e+00 0.000000e+00
0.000000e+00 0.000000e+00 0.000000e+00
0.000000e+00 0.000000e+00 0.000000e+00
0.000000e+00 0.000000e+00 0.000000e+00
0.000000e+00 0.000000e+00 0.000000e+00
0.000000e+00 0.000000e+00 0.000000e+00
0.000000e+00 0.000000e+00 0.000000e+00
0.000000e+00 0.000000e+00 0.000000e+00
0.000000e+00 0.000000e+00 0.000000e+00
0.000000e+00 0.000000e+00 0.000000e+00
0.000000e+00 0.000000e+00 0.000000e+00
0.000000e+00 0.000000e+00 0.000000e+00
0.000000e+00 0.000000e+00 0.000000e+00
0.000000e+00 0.000000e+00 0.000000e+00
0.000000e+00 0.000000e+00 0.000000e+00
0.000000e+00 0.000000e+00 0.000000e+00
0.000000e+00 0.000000e+00 0.000000e+00
0.000000e+00 0.000000e+00 0.000000e+00
0.000000e+00 0.000000e+00 0.000000e+00
0.000000e+00 0.000000e+00 0.000000e+00
0.000000e+00 0.000000e+00 0.000000e+00
0.000000e+00 0.000000e+00 0.000000e+00
0.000000e+00 0.000000e+00 0.000000e+00
0.000000e+00 0.000000e+00 0.000000e+00
0.000000e+00 0.000000e+00 0.000000e+00
0.000000e+00 0.000000e+00 0.000000e+00
0.000000e+00 0.000000e+00 0.000000e+00
0.000000e+00 0.000000e+00 0.000000e+00
0.000000e+00 0.000000e+00 0.000000e+00
0.000000e+00 0.000000e+00 0.000000e+00
0.000000e+00 0.000000e+00 0.000000e+00
0.000000e+00 0.000000e+00 0.000000e+00
0.000000e+00 0.000000e+00 0.000000e+00
0.000000e+00 0.000000e+00 0.000000e+00
0.000000e+00 0.000000e+00 0.000000e+00
0.000000e+00 0.000000e+00 0.000000e+00
0.000000e+00 0.000000e+00 0.000000e+00
0.000000e+00 0.000000e+00 0.000000e+00
0.000000e+00 0.000000e+00 0.000000e+00
0.000000e+00 0.000000e+00 0.000000e+00
0.000000e+00 0.000000e+00 0.000000e+00
0.000000e+00 0.000000e+00 0.000000e+00
0.000000e+00 0.000000e+00 0.000000e+00
0.000000e+00 0.000000e+00 0.000000e+00
0.000000e+00 0.000000e+00 0.000000e+00
0.000000e+00 0.000000e+00 0.000000e+00
0.000000e+00 0.000000e+00 0.000000e+00
0.000000e+00 0.000000e+00 0.000000e+00
0.000000e+00 0.000000e+00 0.000000e+00
0.000000e+00 0.000000e+00 0.000000e+00
0.000000e+00 0.000000e+00 0.000000e+00
0.000000e+00 0.000000e+00 0.000000e+00
0.000000e+00 0.000000e+00 0.000000e+00
0.000000e+00 0.000000e+00 0.000000e+00
0.000000e+00 0.000000e+00 0.000000e+00
0.000000e+00 0.000000e+00 0.000000e+00
0.000000e+00 0.000000e+00 0.000000e+00
0.000000e+00 0.000000e+00 0.000000e+00
0.000000e+00 0.000000e+00 0.000000e+00
0.000000e+00 0.000000e+00 0.000000e+00
0.000000e+00 0.000000e+00 0.000000e+00
0.000000e+00 0.000000e+00 0.000000e+00
0.000000e+00 0.000000e+00 0.000000e+00
0.000000e+00 0.000000e+00 0.000000e+00
0.000000e+00 0.000000e+00 0.000000e+00
0.000000e+00 -8.333333e+01 0.000000e+00
0.000000e+00 0.000000e+00 0.000000e+00
0.000000e+00 0.000000e+00 0.000000e+00
0.000000e+00 0.000000e+00 0.000000e+00
0.000000e+00 0.000000e+00 0.000000e+00
0.000000e+00 0.000000e+00 0.000000e+00
0.000000e+00 0.000000e+00 0.000000e+00
0.000000e+00 0.000000e+00 0.000000e+00
0.000000e+00 0.000000e+00 0.000000e+00
0.000000e+00 0.000000e+00 0.000000e+00
0.000000e+00 0.000000e+00 0.000000e+00
0.000000e+00 0.000000e+00 0.000000e+00
0.000000e+00 0.000000e+00 0.000000e+00
0.000000e+00 0.000000e+00 0.000000e+00
0.000000e+00 0.000000e+00 0.000000e+00
0.000000e+00 0.000000e+00 0.000000e+00
0.000000e+00 0.000000e+00 0.000000e+00
0.000000e+00 0.000000e+00 0.000000e+00
0.000000e+00 0.000000e+00 0.000000e+00
0.000000e+00 0.000000e+00 0.000000e+00
0.000000e+00 0.000000e+00 0.000000e+00
0.000000e+00 0.000000e+00 0.000000e+00
0.000000e+00 0.000000e+00 0.000000e+00
0.000000e+00 0.000000e+00 0.000000e+00
0.000000e+00 0.000000e+00 0.000000e+00
0.000000e+00 0.000000e+00 0.000000e+00
0.000000e+00 0.000000e+00 0.000000e+00
0.000000e+00 0.000000e+00 0.000000e+00
0.000000e+00 0.000000e+00 0.000000e+00
0.000000e+00 0.000000e+00 0.000000e+00
0.000000e+00 0.000000e+00 0.000000e+00
0.000000e+00 0.000000e+00 0.000000e+00
0.000000e+00 0.000000e+00 0.000000e+00
0.000000e+00 0.000000e+00 0.000000e+00
0.000000e+00 0.000000e+00 0.000000e+00
0.000000e+00 0.000000e+00 0.000000e+00
0.000000e+00 0.000000e+00 0.000000e+00
0.000000e+00 0.000000e+00 0.000000e+00
0.000000e+00 0.000000e+00 0.000000e+00
0.000000e+00 0.000000e+00 0.000000e+00
0.000000e+00 0.000000e+00 0.000000e+00
0.000000e+00 0.000000e+00 0.000000e+00
0.000000e+00 0.000000e+00 0.000000e+00
0.000000e+00 0.000000e+00 0.000000e+00
0.000000e+00 0.000000e+00 0.000000e+00
0.000000e+00 0.000000e+00 0.000000e+00
0.000000e+00 0.000000e+00 0.000000e+00
0.000000e+00 0.000000e+00 0.000000e+00
0.000000e+00 0.000000e+00 0.000000e+00
0.000000e+00 0.000000e+00 0.000000e+00
0.000000e+00 0.000000e+00 0.000000e+00
0.000000e+00 0.000000e+00 0.000000e+00
0.000000e+00 0.000000e+00 0.000000e+00
0.000000e+00 0.000000e+00 0.000000e+00
0.000000e+00 0.000000e+00 0.000000e+00
0.000000e+00 0.000000e+00 0.000000e+00
0.000000e+00 0.000000e+00 0.000000e+00
0.000000e+00 0.000000e+00 0.000000e+00
0.000000e+00 0.000000e+00 0.000000e+00
0.000000e+00 0.000000e+00 0.000000e+00
0.000000e+00 0.000000e+00 0.000000e+00
0.000000e+00 0.000000e+00 0.000000e+00
0.000000e+00 0.000000e+00 0.000000e+00
0.000000e+00 0.000000e+00 0.000000e+00
0.000000e+00 0.000000e+00 0.000000e+00
0.000000e+00 0.000000e+00 0.000000e+00
0.000000e+00 0.000000e+00 0.000000e+00
0.000000e+00 0.000000e+00 0.000000e+00
0.000000e+00 0.000000e+00 0.000000e+00
0.000000e+00 0.000000e+00 0.000000e+00
0.000000e+00 0.000000e+00 0.000000e+00
0.000000e+00 0.000000e+00 0.000000e+00
0.000000e+00 0.000000e+00 0.000000e+00
0.000000e+00 0.000000e+00 0.000000e+00
0.000000e+00 0.000000e+00 0.000000e+00
0.000000e+00 0.000000e+00 0.000000e+00
0.000000e+00 0.000000e+00 0.000000e+00
0.000000e+00 0.000000e+00 0.000000e+00
0.000000e+00 0.000000e+00 0.000000e+00
0.000000e+00 0.000000e+00 0.000000e+00
0.000000e+00 0.000000e+00 0.000000e+00
0.000000e+00 0.000000e+00 0.000000e+00
0.000000e+00 0.000000e+00 0.000000e+00
0.000000e+00 0.000000e+00 0.000000e+00
0.000000e+00 0.000000e+00 0.000000e+00
0.000000e+00 0.000000e+00 0.000000e+00
0.000000e+00 0.000000e+00 0.000000e+00
0.000000e+00 0.000000e+00 0.000000e+00
0.000000e+00 0.000000e+00 0.000000e+00
0.000000e+00 0.000000e+00 0.000000e+00
0.000000e+00 0.000000e+00 0.000000e+00
0.000000e+00 0.000000e+00 0.000000e+00
0.000000e+00 0.000000e+00 0.000000e+00
0.000000e+00 0.000000e+00 0.000000e+00
0.000000e+00 0.000000e+00 0.000000e+00
0.000000e+00 0.000000e+00 0.000000e+00
0.000000e+00 0.000000e+00 0.000000e+00
0.000000e+00 -8.333333e+01 0.000000e+00
0.000000e+00 0.000000e+00 0.000000e+00
0.000000e+00 0.000000e+00 0.000000e+00
0.000000e+00 0.000000e+00 0.000000e+00
0.000000e+00 0.000000e+00 0.000000e+00
0.000000e+00 0.000000e+00 0.000000e+00
0.000000e+00 0.000000e+00 0.000000e+00
0.000000e+00 0.000000e+00 0.000000e+00
0.000000e+00 0.000000e+00 0.000000e+00
0.000000e+00 0.000000e+00 0.000000e+00
0.000000e+00 0.000000e+00 0.000000e+00
0.000000e+00 0.000000e+00 0.000000e+00
0.000000e+00 0.000000e+00 0.000000e+00
0.000000e+00 0.000000e+00 0.000000e+00
0.000000e+00 0.000000e+00 0.000000e+00
0.000000e+00 0.000000e+00 0.000000e+00
0.000000e+00 0.000000e+00 0.000000e+00
0.000000e+00 0.000000e+00 0.000000e+00
0.000000e+00 0.000000e+00 0.000000e+00
0.000000e+00 0.000000e+00 0.000000e+00
0.000000e+00 0.000000e+00 0.000000e+00
0.000000e+00 0.000000e+00 0.000000e+00
0.000000e+00 0.000000e+00 0.000000e+00
0.000000e+00 0.000000e+00 0.000000e+00
0.000000e+00 0.000000e+00 0.000000e+00
0.000000e+00 0.000000e+00 0.000000e+00
0.000000e+00 0.000000e+00 0.000000e+00
0.000000e+00 0.000000e+00 0.000000e+00
0.000000e+00 0.000000e+00 0.000000e+00
0.000000e+00 0.000000e+00 0.000000e+00
0.000000e+00 0.000000e+00 0.000000e+00
0.000000e+00 0.000000e+00 0.000000e+00
0.000000e+00 0.000000e+00 0.000000e+00
0.000000e+00 0.000000e+00 0.000000e+00
0.000000e+00 0.000000e+00 0.000000e+00
0.000000e+00 0.000000e+00 0.000000e+00
0.000000e+00 0.000000e+00 0.000000e+00
0.000000e+00 0.000000e+00 0.000000e+00
0.000000e+00 0.000000e+00 0.000000e+00
0.000000e+00 0.000000e+00 0.000000e+00
0.000000e+00 0.000000e+00 0.000000e+00
0.000000e+00 0.000000e+00 0.000000e+00
0.000000e+00 0.000000e+00 0.000000e+00
0.000000e+00 0.000000e+00 0.000000e+00
0.000000e+00 0.000000e+00 0.000000e+00
0.000000e+00 0.000000e+00 0.000000e+00
0.000000e+00 0.000000e+00 0.000000e+00
0.000000e+00 0.000000e+00 0.000000e+00
0.000000e+00 0.000000e+00 0.000000e+00
0.000000e+00 0.000000e+00 0.000000e+00
0.000000e+00 0.000000e+00 0.000000e+00
0.000000e+00 0.000000e+00 0.000000e+00
0.000000e+00 0.000000e+00 0.000000e+00
0.000000e+00 0.000000e+00 0.000000e+00
0.000000e+00 0.000000e+00 0.000000e+00
0.000000e+00 0.000000e+00 0.000000e+00
0.000000e+00 0.000000e+00 0.000000e+00
0.000000e+00 0.000000e+00 0.000000e+00
0.000000e+00 0.000000e+00 0.000000e+00
0.000000e+00 0.000000e+00 0.000000e+00
0.000000e+00 0.000000e+00 0.000000e+00
0.000000e+00 0.000000e+00 0.000000e+00
0.000000e+00 0.000000e+00 0.000000e+00
0.000000e+00 0.000000e+00 0.000000e+00
0.000000e+00 0.000000e+00 0.000000e+00
0.000000e+00 0.000000e+00 0.000000e+00
0.000000e+00 0.000000e+00 0.000000e+00
0.000000e+00 0.000000e+00 0.000000e+00
0.000000e+00 0.000000e+00 0.000000e+00
0.000000e+00 0.000000e+00 0.000000e+00
0.000000e+00 0.000000e+00 0.000000e+00
0.000000e+00 0.000000e+00 0.000000e+00
0.000000e+00 0.000000e+00 0.000000e+00
0.000000e+00 0.000000e+00 0.000000e+00
0.000000e+00 0.000000e+00 0.000000e+00
0.000000e+00 0.000000e+00 0.000000e+00
0.000000e+00 0.000000e+00 0.000000e+00
0.000000e+00 0.000000e+00 0.000000e+00
0.000000e+00 0.000000e+00 0.000000e+00
0.000000e+00 0.000000e+00 0.000000e+00
0.000000e+00 0.000000e+00 0.000000e+00
0.000000e+00 0.000000e+00 0.000000e+00
0.000000e+00 0.000000e+00 0.000000e+00
0.000000e+00 0.000000e+00 0.000000e+00
0.000000e+00 0.000000e+00 0.000000e+00
0.000000e+00 0.000000e+00 0.000000e+00
0.000000e+00 0.000000e+00 0.000000e+00
0.000000e+00 0.000000e+00 0.000000e+00
0.000000e+00 0.000000e+00 0.000000e+00
0.000000e+00 0.000000e+00 0.000000e+00
0.000000e+00 0.000000e+00 0.000000e+00
0.000000e+00 0.000000e+00 0.000000e+00
0.000000e+00 0.000000e+00 0.000000e+00
0.000000e+00 0.000000e+00 0.000000e+00
0.000000e+00 0.000000e+00 0.000000e+00
0.000000e+00 0.000000e+00 0.000000e+00
0.000000e+00 0.000000e+00 0.000000e+00
0.000000e+00 -8.333333e+01 0.000000e+00
0.000000e+00 0.000000e+00 0.000000e+00
0.000000e+00 0.000000e+00 0.000000e+00
0.000000e+00 0.000000e+00 0.000000e+00
0.000000e+00 0.000000e+00 0.000000e+00
0.000000e+00 0.000000e+00 0.000000e+00
0.000000e+00 0.000000e+00 0.000000e+00
0.000000e+00 0.000000e+00 0.000000e+00
0.000000e+00 0.000000e+00 0.000000e+00
0.000000e+00 0.000000e+00 0.000000e+00
0.000000e+00 0.000000e+00 0.000000e+00
0.000000e+00 0.000000e+00 0.000000e+00
0.000000e+00 0.000000e+00 0.000000e+00
0.000000e+00 0.000000e+00 0.000000e+00
0.000000e+00 0.000000e+00 0.000000e+00
0.000000e+00 0.000000e+00 0.000000e+00
0.000000e+00 0.000000e+00 0.000000e+00
0.000000e+00 0.000000e+00 0.000000e+00
0.000000e+00 0.000000e+00 0.000000e+00
0.000000e+00 0.000000e+00 0.000000e+00
0.000000e+00 0.000000e+00 0.000000e+00
0.000000e+00 0.000000e+00 0.000000e+00
0.000000e+00 0.000000e+00 0.000000e+00
0.000000e+00 0.000000e+00 0.000000e+00
0.000000e+00 0.000000e+00 0.000000e+00
0.000000e+00 0.000000e+00 0.000000e+00
0.000000e+00 0.000000e+00 0.000000e+00
0.000000e+00 0.000000e+00 0.000000e+00
0.000000e+00 0.000000e+00 0.000000e+00
0.000000e+00 0.000000e+00 0.000000e+00
0.000000e+00 0.000000e+00 0.000000e+00
0.000000e+00 0.000000e+00 0.000000e+00
0.000000e+00 0.000000e+00 0.000000e+00
0.000000e+00 0.000000e+00 0.000000e+00
0.000000e+00 0.000000e+00 0.000000e+00
0.000000e+00 0.000000e+00 0.000000e+00
0.000000e+00 0.000000e+00 0.000000e+00
0.000000e+00 0.000000e+00 0.000000e+00
0.000000e+00 0.000000e+00 0.000000e+00
0.000000e+00 0.000000e+00 0.000000e+00
0.000000e+00 0.000000e+00 0.000000e+00
0.000000e+00 0.000000e+00 0.000000e+00
0.000000e+00 0.000000e+00 0.000000e+00
0.000000e+00 0.000000e+00 0.000000e+00
0.000000e+00 0.000000e+00 0.000000e+00
0.000000e+00 0.000000e+00 0.000000e+00
0.000000e+00 0.000000e+00 0.000000e+00
0.000000e+00 0.000000e+00 0.000000e+00
0.000000e+00 0.000000e+00 0.000000e+00
0.000000e+00 0.000000e+00 0.000000e+00
0.000000e+00 0.000000e+00 0.000000e+00
0.000000e+00 0.000000e+00 0.000000e+00
0.000000e+00 0.000000e+00 0.000000e+00
0.000000e+00 0.000000e+00 0.000000e+00
0.000000e+00 0.000000e+00 0.000000e+00
0.000000e+00 0.000000e+00 0.000000e+00
0.000000e+00 0.000000e+00 0.000000e+00
0.000000e+00 0.000000e+00 0.000000e+00
0.000000e+00 0.000000e+00 0.000000e+00
0.000000e+00 0.000000e+00 0.000000e+00
0.000000e+00 0.000000e+00 0.000000e+00
0.000000e+00 0.000000e+00 0.000000e+00
0.000000e+00 0.000000e+00 0.000000e+00
0.000000e+00 0.000000e+00 0.000000e+00
0.000000e+00 0.000000e+00 0.000000e+00
0.000000e+00 0.000000e+00 0.000000e+00
0.000000e+00 0.000000e+00 0.000000e+00
0.000000e+00 0.000000e+00 0.000000e+00
0.000000e+00 0.000000e+00 0.000000e+00
0.000000e+00 0.000000e+00 0.000000e+00
0.000000e+00 0.000000e+00 0.000000e+00
0.000000e+00 0.000000e+00 0.000000e+00
0.000000e+00 0.000000e+00 0.000000e+00
0.000000e+00 0.000000e+00 0.000000e+00
0.000000e+00 0.000000e+00 0.000000e+00
0.000000e+00 0.000000e+00 0.000000e+00
0.000000e+00 0.000000e+00 0.000000e+00
0.000000e+00 0.000000e+00 0.000000e+00
0.000000e+00 0.000000e+00 0.000000e+00
0.000000e+00 0.000000e+00 0.000000e+00
0.000000e+00 0.000000e+00 0.000000e+00
0.000000e+00 0.000000e+00 0.000000e+00
0.000000e+00 0.000000e+00 0.000000e+00
0.000000e+00 0.000000e+00 0.000000e+00
0.000000e+00 0.000000e+00 0.000000e+00
0.000000e+00 0.000000e+00 0.000000e+00
0.000000e+00 0.000000e+00 0.000000e+00
0.000000e+00 0.000000e+00 0.000000e+00
0.000000e+00 0.000000e+00 0.000000e+00
0.000000e+00 0.000000e+00 0.000000e+00
0.000000e+00 0.000000e+00 0.000000e+00
0.000000e+00 0.000000e+00 0.000000e+00
0.000000e+00 0.000000e+00 0.000000e+00
0.000000e+00 0.000000e+00 0.000000e+00
0.000000e+00 0.000000e+00 0.000000e+00
0.000000e+00 0.000000e+00 0.000000e+00
0.000000e+00 0.000000e+00 0.000000e+00
0.000000e+00 -8.333333e+01 0.000000e+00
0.000000e+00 0.000000e+00 0.000000e+00
0.000000e+00 0.000000e+00 0.000000e+00

CELL_DATA 512
SCALARS Von_Mises_Stress float
LOOKUP_TABLE default
5.375804e+05
4.742504e+05
5.193538e+05
4.771583e+05
5.043388e+05
4.635212e+05
4.872213e+05
4.480862e+05
4.700063e+05
4.324423e+05
4.528129e+05
4.168108e+05
4.356261e+05
4.011878e+05
4.184397e+05
3.855662e+05
4.012532e+05
3.699448e+05
3.840666e+05
3.543235e+05
3.668801e+05
3.387026e+05
3.496937e+05
3.230820e+05
3.325074e+05
3.074619e+05
3.153212e+05
2.918424e+05
2.981352e+05
2.762234e+05
2.809493e+05
2.606052e+05
2.637637e+05
2.449878e+05
2.465783e+05
2.293714e+05
2.293933e+05
2.137564e+05
2.122086e+05
1.981429e+05
1.950245e+05
1.825313e+05
1.778410e+05
1.669223e+05
1.606583e+05
1.513166e+05
1.434768e+05
1.357153e+05
1.262970e+05
1.201202e+05
1.091195e+05
1.045340e+05
9.194580e+04
8.896144e+04
7.477861e+04
7.341131e+04
5.762617e+04
5.790215e+04
4.055824e+04
4.248751e+04
2.396182e+04
2.731398e+04
1.113087e+04
1.365558e+04
3.880813e+05
3.146478e+05
3.800759e+05
3.398732e+05
3.671452e+05
3.254719e+05
3.546066e+05
3.141577e+05
3.421057e+05
3.032081e+05
3.296153e+05
2.922886e+05
3.171274e+05
2.813708e+05
3.046407e+05
2.704543e+05
2.921552e+05
2.595396e+05
2.796709e+05
2.486269e+05
2.671880e+05
2.377164e+05
2.547068e+05
2.268085e+05
2.422276e+05
2.159037e+05
2.297506e+05
2.050023e+05
2.172763e+05
1.941050e+05
2.048050e+05
1.832125e+05
1.923376e+05
1.723256e+05
1.798746e+05
1.614457e+05
1.674172e+05
1.505740e+05
1.549666e+05
1.397127e+05
1.425247e+05
1.288642e+05
1.300939e+05
1.180322e+05
1.176778e+05
1.072215e+05
1.052815e+05
9.643950e+04
9.291301e+04
8.569690e+04
8.058513e+04
7.501065e+04
6.831986e+04
6.440881e+04
5.615843e+04
5.394122e+04
4.418474e+04
4.370265e+04
3.253097e+04
3.385928e+04
2.124005e+04
2.458400e+04
1.732035e+04
1.833406e+04
2.378411e+05
1.754615e+05
2.407393e+05
1.967608e+05
2.306236e+05
1.877306e+05
2.225161e+05
1.807906e+05
2.147358e+05
1.745582e+05
2.069676e+05
1.683728e+05
1.991991e+05
1.621856e+05
1.914335e+05
1.560014e+05
1.836718e+05
1.498225e+05
1.759147e+05
1.436499e+05
1.681627e+05
1.374843e+05
1.604166e+05
1.313266e+05
1.526773e+05
1.251781e+05
1.449459e+05
1.190402e+05
1.372236e+05
1.129146e+05
1.295121e+05
1.068034e+05
1.218135e+05
1.007092e+05
1.141304e+05
9.463538e+04
1.064661e+05
8.858606e+04
9.882501e+04
8.256663e+04
9.121299e+04
7.658415e+04
8.363795e+04
7.064801e+04
7.611093e+04
6.477094e+04
6.864774e+04
5.897062e+04
6.127169e+04
5.327211e+04
5.401850e+04
4.771192e+04
4.694508e+04
4.234448e+04
4.014630e+04
3.725297e+04
3.378193e+04
3.256545e+04
2.807673e+04
2.847129e+04
2.364832e+04
2.536249e+04
2.153981e+04
2.340392e+04
9.465800e+04
4.416646e+04
1.003708e+05
5.704297e+04
9.547803e+04
5.382769e+04
9.216173e+04
5.176534e+04
8.916406e+04
5.039595e+04
8.617799e+04
4.906965e+04
8.319540e+04
4.774830e+04
8.022230e+04
4.643943e+04
7.726117e+04
4.514646e+04
7.431354e+04
4.387111e+04
7.138103e+04
4.261493e+04
6.846556e+04
4.137964e+04
6.556939e+04
4.016714e+04
6.269521e+04
3.897957e+04
5.984617e+04
3.781928e+04
5.702606e+04
3.668884e+04
5.423937e+04
3.559111e+04
5.149153e+04
3.452920e+04
4.878912e+04
3.350653e+04
4.614011e+04
3.252679e+04
4.355425e+04
3.159398e+04
4.104347e+04
3.071237e+04
3.862243e+04
2.988650e+04
3.630907e+04
2.912110e+04
3.412531e+04
2.842108e+04
3.209758e+04
2.779135e+04
3.025711e+04
2.723670e+04
2.863949e+04
2.676150e+04
2.728736e+04
2.637273e+04
2.633282e+04
2.613622e+04
2.636758e+04
2.645998e+04
2.338153e+04
2.589129e+04
4.828666e+04
8.932321e+04
5.545705e+04
1.007255e+05
5.284912e+04
9.668575e+04
5.113468e+04
9.302474e+04
4.974685e+04
8.993356e+04
4.840989e+04
8.692682e+04
4.709254e+04
8.393885e+04
4.579154e+04
8.096303e+04
4.450737e+04
7.799901e+04
4.324145e+04
7.504797e+04
4.199548e+04
7.211154e+04
4.077132e+04
6.919163e+04
3.957099e+04
6.629041e+04
3.839672e+04
6.341046e+04
3.725100e+04
6.055482e+04
3.613652e+04
5.772709e+04
3.505626e+04
5.493159e+04
3.401350e+04
5.217349e+04
3.301178e+04
4.945905e+04
3.205496e+04
4.679587e+04
3.114716e+04
4.419322e+04
3.029279e+04
4.166245e+04
2.949651e+04
3.921746e+04
2.876313e+04
3.687533e+04
2.809757e+04
3.465691e+04
2.750478e+04
3.258750e+04
2.698954e+04
3.069730e+04
2.655634e+04
2.902152e+04
2.621661e+04
2.760082e+04
2.609348e+04
2.651105e+04
2.676196e+04
2.609002e+04
2.375026e+04
2.553299e+04
1.888594e+05
2.228339e+05
1.932548e+05
2.433563e+05
1.851172e+05
2.335513e+05
1.784872e+05
2.249130e+05
1.722543e+05
2.170723e+05
1.660585e+05
2.092947e+05
1.598707e+05
2.015241e+05
1.536885e+05
1.937575e+05
1.475120e+05
1.859947e+05
1.413420e+05
1.782362e+05
1.351792e+05
1.704826e+05
1.290248e+05
1.627347e+05
1.228801e+05
1.549933e+05
1.167466e+05
1.472593e+05
1.106261e+05
1.395341e+05
1.045209e+05
1.318192e+05
9.843395e+04
1.241165e+05
9.236874e+04
1.164284e+05
8.632989e+04
1.087581e+05
8.032336e+04
1.011096e+05
7.435696e+04
9.348811e+04
6.844121e+04
8.590101e+04
6.259046e+04
7.835822e+04
5.682478e+04
7.087388e+04
5.117296e+04
6.346868e+04
4.567728e+04
5.617393e+04
4.040172e+04
4.903906e+04
3.544515e+04
4.214577e+04
3.095812e+04
3.563291e+04
2.714557e+04
2.970946e+04
2.452833e+04
2.466285e+04
2.274280e+04
2.222824e+04
3.344159e+05
3.648175e+05
3.345858e+05
3.865362e+05
3.213918e+05
3.712366e+05
3.102492e+05
3.584660e+05
2.993227e+05
3.459868e+05
2.884046e+05
3.335021e+05
2.774873e+05
3.210146e+05
2.665714e+05
3.085275e+05
2.556573e+05
2.960415e+05
2.447453e+05
2.835567e+05
2.338358e+05
2.710734e+05
2.229289e+05
2.585916e+05
2.120252e+05
2.461118e+05
2.011252e+05
2.336340e+05
1.902295e+05
2.211588e+05
1.793389e+05
2.086866e+05
1.684544e+05
1.962179e+05
1.575772e+05
1.837534e+05
1.467090e+05
1.712941e+05
1.358518e+05
1.588413e+05
1.250087e+05
1.463964e+05
1.141836e+05
1.339618e+05
1.033822e+05
1.215407e+05
9.261274e+04
1.091375e+05
8.188781e+04
9.675932e+04
7.122756e+04
8.441700e+04
6.066622e+04
7.212903e+04
5.026652e+04
5.992896e+04
4.014970e+04
4.788342e+04
3.050302e+04
3.612275e+04
2.150860e+04
2.476413e+04
1.948474e+04
1.626832e+04
4.843260e+05
5.243606e+05
4.733640e+05
5.239720e+05
4.580949e+05
5.090992e+05
4.426838e+05
4.924686e+05
4.270839e+05
4.753395e+05
4.114655e+05
4.581599e+05
3.958435e+05
4.409733e+05
3.802215e+05
4.237861e+05
3.645999e+05
4.065992e+05
3.489787e+05
3.894125e+05
3.333579e+05
3.722260e+05
3.177375e+05
3.550395e+05
3.021175e+05
3.378532e+05
2.864982e+05
3.206670e+05
2.708794e+05
3.034809e+05
2.552615e+05
2.862950e+05
2.396444e+05
2.691093e+05
2.240285e+05
2.519238e+05
2.084139e+05
2.347387e+05
1.928011e+05
2.175539e+05
1.771903e+05
2.003696e+05
1.615823e+05
1.831858e+05
1.459780e+05
1.660029e+05
1.303786e+05
1.488210e+05
1.147861e+05
1.316406e+05
9.920396e+04
1.144623e+05
8.363768e+04
9.728722e+04
6.809776e+04
8.011690e+04
5.260797e+04
6.295419e+04
3.725287e+04
4.582791e+04
2.236754e+04
2.911764e+04
1.211276e+04
1.410090e+04

SCALARS Material_ID int
LOOKUP_TABLE default
1
1
1
1
1
1
1
1
1
1
1
1
1
1
1
1
1
1
1
1
1
1
1
1
1
1
1
1
1
1
1
1
1
1
1
1
1
1
1
1
1
1
1
1
1
1
1
1
1
1
1
1
1
1
1
1
1
1
1
1
1
1
1
1
1
1
1
1
1
1
1
1
1
1
1
1
1
1
1
1
1
1
1
1
1
1
1
1
1
1
1
1
1
1
1
1
1
1
1
1
1
1
1
1
1
1
1
1
1
1
1
1
1
1
1
1
1
1
1
1
1
1
1
1
1
1
1
1
1
1
1
1
1
1
1
1
1
1
1
1
1
1
1
1
1
1
1
1
1
1
1
1
1
1
1
1
1
1
1
1
1
1
1
1
1
1
1
1
1
1
1
1
1
1
1
1
1
1
1
1
1
1
1
1
1
1
1
1
1
1
1
1
1
1
1
1
1
1
1
1
1
1
1
1
1
1
1
1
1
1
1
1
1
1
1
1
1
1
1
1
1
1
1
1
1
1
1
1
1
1
1
1
1
1
1
1
1
1
1
1
1
1
1
1
1
1
1
1
1
1
1
1
1
1
1
1
1
1
1
1
1
1
1
1
1
1
1
1
1
1
1
1
1
1
1
1
1
1
1
1
1
1
1
1
1
1
1
1
1
1
1
1
1
1
1
1
1
1
1
1
1
1
1
1
1
1
1
1
1
1
1
1
1
1
1
1
1
1
1
1
1
1
1
1
1
1
1
1
1
1
1
1
1
1
1
1
1
1
1
1
1
1
1
1
1
1
1
1
1
1
1
1
1
1
1
1
1
1
1
1
1
1
1
1
1
1
1
1
1
1
1
1
1
1
1
1
1
1
1
1
1
1
1
1
1
1
1
1
1
1
1
1
1
1
1
1
1
1
1
1
1
1
1
1
1
1
1
1
1
1
1
1
1
1
1
1
1
1
1
1
1
1
1
1
1
1
1
1
1
1
1
1
1
1
1
1
1
1
1
1
1
1
1
1
1
1
1
1
1
1
1
1
1
1
1
1
1
1
1
1
1
1
1
1
1
1
1
1
1
1
1
1
1
1
1
1
1
1
1
1
1
1
1
1
1
1
1
1
1
1
1
1
1
1
1
1
1
1
1
1
1
1
1
1
1
1
1
1
1
1
1
1
